structural
morse    2
rOHe    0   0   0    1          0.949894503381
rOCle   0   0   0    0          1.688884760
alphae  0   0   0    0          103.0000000
am1     0   0   0    1          2.078839191952
am2     0   0   0    0          1.000000000
end

linear
f    0   0   0    1     0.0000000
f    2   0   0    1     0.0000000
f    3   0   0    1     0.0000000
f    4   0   0    1     0.0000000
f    6   0   0    1     0.0000000
f    7   0   0    1     0.0000000
f    8   0   0    1     0.0000000
end

grid
0.96446195 1.68888476 103.00000000 -535.789142464675    1
0.95946195 1.68888476 103.00000000 -535.789262200604    2
0.96946195 1.68888476 103.00000000 -535.788975928652    3
0.95446195 1.68888476 103.00000000 -535.789333497623    4
0.97446195 1.68888476 103.00000000 -535.788764181179    5
0.94946195 1.68888476 103.00000000 -535.789354664626    6
0.97946195 1.68888476 103.00000000 -535.788508762044    7
0.94446195 1.68888476 103.00000000 -535.789323956214    8
0.98446195 1.68888476 103.00000000 -535.788211163920    9
0.93946195 1.68888476 103.00000000 -535.789239572627   10
0.98946195 1.68888476 103.00000000 -535.787872833264   11
0.93446195 1.68888476 103.00000000 -535.789099655465   12
0.99446195 1.68888476 103.00000000 -535.787495172476   13
0.92946195 1.68888476 103.00000000 -535.788902287223   14
0.99946195 1.68888476 103.00000000 -535.787079541394   15
0.92446195 1.68888476 103.00000000 -535.788645489260   16
1.00446195 1.68888476 103.00000000 -535.786627257575   17
0.91946195 1.68888476 103.00000000 -535.788327219665   18
1.00946195 1.68888476 103.00000000 -535.786139598871   19
0.91446195 1.68888476 103.00000000 -535.787945370771   20
1.01446195 1.68888476 103.00000000 -535.785617804086   21
0.90946195 1.68888476 103.00000000 -535.787497766309   22
1.01946195 1.68888476 103.00000000 -535.785063073740   23
0.90446195 1.68888476 103.00000000 -535.786982161574   24
1.02446195 1.68888476 103.00000000 -535.784476572265   25
0.89946195 1.68888476 103.00000000 -535.786396237749   26
1.02946195 1.68888476 103.00000000 -535.783859428685   27
0.89446195 1.68888476 103.00000000 -535.785737602073   28
1.03446195 1.68888476 103.00000000 -535.783212736930   29
0.88946195 1.68888476 103.00000000 -535.785003783571   30
1.03946195 1.68888476 103.00000000 -535.782537558511   31
0.88446195 1.68888476 103.00000000 -535.784192231907   32
1.04446195 1.68888476 103.00000000 -535.781834921749   33
0.87946195 1.68888476 103.00000000 -535.783300312536   34
1.04946195 1.68888476 103.00000000 -535.781105824595   35
0.87446195 1.68888476 103.00000000 -535.782325306236   36
1.05446195 1.68888476 103.00000000 -535.780351233818   37
0.86946195 1.68888476 103.00000000 -535.781264404119   38
1.05946195 1.68888476 103.00000000 -535.779572087531   39
0.86446195 1.68888476 103.00000000 -535.780114705889   40
1.06446195 1.68888476 103.00000000 -535.778769294371   41
0.85446195 1.68888476 103.00000000 -535.777536839124   42
1.07446195 1.68888476 103.00000000 -535.777096268094   43
0.84446195 1.68888476 103.00000000 -535.774566536662   44
1.08446195 1.68888476 103.00000000 -535.775338889914   45
1.08946195 1.68888476 103.00000000 -535.774430562406   46
0.83946195 1.68888476 103.00000000 -535.772925897348   47
1.11446195 1.68888476 103.00000000 -535.769622076022   48
0.81446195 1.68888476 103.00000000 -535.763021984856   49
0.76446195 1.68888476 103.00000000 -535.733035487252   50
1.26446195 1.68888476 103.00000000 -535.734950988824   51
0.66446195 1.68888476 103.00000000 -535.612041838671   52
1.36446195 1.68888476 103.00000000 -535.709600018973   53
1.46446195 1.68888476 103.00000000 -535.683857096750   55
1.56446195 1.68888476 103.00000000 -535.665329914036   56
1.66446195 1.68888476 103.00000000 -535.651669156044   57
1.76446195 1.68888476 103.00000000 -535.641058219785   58
1.86446195 1.68888476 103.00000000 -535.633037843789   59
1.96446195 1.68888476 103.00000000 -535.626817468610   60
0.64321608 1.68888476 103.00000000 -535.571057731643 6182
0.65075377 1.68888476 103.00000000 -535.586379788590 6183
0.65829146 1.68888476 103.00000000 -535.600830269309 6184
0.66582915 1.68888476 103.00000000 -535.614453282224 6185
0.67336683 1.68888476 103.00000000 -535.627290542164 6186
0.68090452 1.68888476 103.00000000 -535.639381579785 6187
0.68844221 1.68888476 103.00000000 -535.650763769232 6188
0.69597990 1.68888476 103.00000000 -535.661472522436 6189
0.70351759 1.68888476 103.00000000 -535.671541385502 6190
0.71105528 1.68888476 103.00000000 -535.681002147124 6191
0.71859296 1.68888476 103.00000000 -535.689885317620 6192
0.72613065 1.68888476 103.00000000 -535.698218693135 6193
0.73366834 1.68888476 103.00000000 -535.706029756264 6194
0.74120603 1.68888476 103.00000000 -535.713344213465 6195
0.74874372 1.68888476 103.00000000 -535.720186458276 6196
0.75628141 1.68888476 103.00000000 -535.726579644500 6197
0.76381910 1.68888476 103.00000000 -535.732545754439 6198
0.77135678 1.68888476 103.00000000 -535.738105657296 6199
0.77889447 1.68888476 103.00000000 -535.743279197306 6200
0.78643216 1.68888476 103.00000000 -535.748085207323 6201
0.79396985 1.68888476 103.00000000 -535.752541591051 6202
0.80150754 1.68888476 103.00000000 -535.756665367036 6203
0.80904523 1.68888476 103.00000000 -535.760472715054 6204
0.81658291 1.68888476 103.00000000 -535.763979016395 6205
0.82412060 1.68888476 103.00000000 -535.767198913917 6206
0.83165829 1.68888476 103.00000000 -535.770147487389 6207
0.83919598 1.68888476 103.00000000 -535.772835622826 6208
0.84673367 1.68888476 103.00000000 -535.775277120500 6209
0.85427136 1.68888476 103.00000000 -535.777483979058 6210
0.86180905 1.68888476 103.00000000 -535.779467621223 6211
0.86934673 1.68888476 103.00000000 -535.781238921293 6212
0.87688442 1.68888476 103.00000000 -535.782808241940 6213
0.88442211 1.68888476 103.00000000 -535.784185446224 6214
0.89195980 1.68888476 103.00000000 -535.785379932603 6215
0.89949749 1.68888476 103.00000000 -535.786400656045 6216
0.90703518 1.68888476 103.00000000 -535.787256149756 6217
0.91457286 1.68888476 103.00000000 -535.787954545590 6218
0.92211055 1.68888476 103.00000000 -535.788503597365 6219
0.92964824 1.68888476 103.00000000 -535.788910693956 6220
0.93718593 1.68888476 103.00000000 -535.789182881776 6221
0.94472362 1.68888476 103.00000000 -535.789326878408 6222
0.95226131 1.68888476 103.00000000 -535.789349092249 6223
0.95979899 1.68888476 103.00000000 -535.789255633450 6224
0.96733668 1.68888476 103.00000000 -535.789052331045 6225
0.97487437 1.68888476 103.00000000 -535.788744745072 6226
0.98241206 1.68888476 103.00000000 -535.788338180195 6227
0.98994975 1.68888476 103.00000000 -535.787837697657 6228
0.99748744 1.68888476 103.00000000 -535.787248126391 6229
1.00502513 1.68888476 103.00000000 -535.786574074096 6230
1.01256281 1.68888476 103.00000000 -535.785819939562 6231
1.02010050 1.68888476 103.00000000 -535.784989917178 6232
1.02763819 1.68888476 103.00000000 -535.784088013345 6233
1.03517588 1.68888476 103.00000000 -535.783118050000 6234
1.04271357 1.68888476 103.00000000 -535.782083675975 6235
1.05025126 1.68888476 103.00000000 -535.780988373490 6236
1.05778894 1.68888476 103.00000000 -535.779835468207 6237
1.06532663 1.68888476 103.00000000 -535.778628129483 6238
1.07286432 1.68888476 103.00000000 -535.777369387268 6239
1.08040201 1.68888476 103.00000000 -535.776062131684 6240
1.08793970 1.68888476 103.00000000 -535.774709121700 6241
1.09547739 1.68888476 103.00000000 -535.773312989916 6242
1.10301508 1.68888476 103.00000000 -535.771876249700 6243
1.11055276 1.68888476 103.00000000 -535.770401300231 6244
1.11809045 1.68888476 103.00000000 -535.768890426535 6245
1.12562814 1.68888476 103.00000000 -535.767345812773 6246
1.13316583 1.68888476 103.00000000 -535.765769542295 6247
1.14070352 1.68888476 103.00000000 -535.764163601292 6248
1.14824121 1.68888476 103.00000000 -535.762529884533 6249
1.15577889 1.68888476 103.00000000 -535.760870200380 6250
1.16331658 1.68888476 103.00000000 -535.759186266719 6251
1.17085427 1.68888476 103.00000000 -535.757479726227 6252
1.17839196 1.68888476 103.00000000 -535.755752142842 6253
1.18592965 1.68888476 103.00000000 -535.754005004418 6254
1.19346734 1.68888476 103.00000000 -535.752239728821 6255
1.20100503 1.68888476 103.00000000 -535.750457663823 6256
1.20854271 1.68888476 103.00000000 -535.748660928853 6257
1.21608040 1.68888476 103.00000000 -535.746849031451 6258
1.22361809 1.68888476 103.00000000 -535.745024002019 6259
1.23115578 1.68888476 103.00000000 -535.743186937069 6260
1.23869347 1.68888476 103.00000000 -535.741338876542 6261
1.24623116 1.68888476 103.00000000 -535.739480803459 6262
1.25376884 1.68888476 103.00000000 -535.737613650574 6263
1.26130653 1.68888476 103.00000000 -535.735738288364 6264
1.26884422 1.68888476 103.00000000 -535.733855544980 6265
1.27638191 1.68888476 103.00000000 -535.731966194136 6266
1.28391960 1.68888476 103.00000000 -535.730070961868 6267
1.29145729 1.68888476 103.00000000 -535.728170522980 6268
1.29899497 1.68888476 103.00000000 -535.726265508128 6269
1.30653266 1.68888476 103.00000000 -535.724356491444 6270
1.31407035 1.68888476 103.00000000 -535.722444006851 6271
1.32160804 1.68888476 103.00000000 -535.720528537220 6272
1.32914573 1.68888476 103.00000000 -535.718610516457 6273
1.33668342 1.68888476 103.00000000 -535.716690328029 6274
1.34422111 1.68888476 103.00000000 -535.714768304601 6275
1.35175879 1.68888476 103.00000000 -535.712844727634 6276
1.35929648 1.68888476 103.00000000 -535.710919815806 6277
1.36683417 1.68888476 103.00000000 -535.708993735028 6278
1.37437186 1.68888476 103.00000000 -535.707066586890 6279
1.38190955 1.68888476 103.00000000 -535.705138403407 6280
1.38944724 1.68888476 103.00000000 -535.703209140403 6281
1.39698492 1.68888476 103.00000000 -535.701278672546 6282
1.40452261 1.68888476 103.00000000 -535.699346770308 6283
1.41206030 1.68888476 103.00000000 -535.697413099790 6284
1.41959799 1.68888476 103.00000000 -535.695477193003 6285
1.42713568 1.68888476 103.00000000 -535.693538422261 6286
1.43467337 1.68888476 103.00000000 -535.691595962499 6287
1.44221106 1.68888476 103.00000000 -535.689648738360 6288
1.44974874 1.68888476 103.00000000 -535.687695349676 6289
1.45728643 1.68888476 103.00000000 -535.685733946216 6290
1.46482412 1.68888476 103.00000000 -535.683762066658 6291
1.47236181 1.68888476 103.00000000 -535.681776328188 6292
1.47989950 1.68888476 103.00000000 -535.679771879942 6293
1.48743719 1.68888476 103.00000000 -535.677741206009 6294
1.49497487 1.68888476 103.00000000 -535.675670703884 6295
1.50251256 1.68888476 103.00000000 -535.673524750556 6296
1.51005025 1.68888476 103.00000000 -535.673994146375 6297
1.51758794 1.68888476 103.00000000 -535.672744641889 6298
1.52512563 1.68888476 103.00000000 -535.671510758073 6299
1.53266332 1.68888476 103.00000000 -535.670292613062 6300
1.54020101 1.68888476 103.00000000 -535.669090332966 6301
1.54773869 1.68888476 103.00000000 -535.667904049893 6302
1.55527638 1.68888476 103.00000000 -535.666733893094 6303
1.56281407 1.68888476 103.00000000 -535.665579997835 6304
1.57035176 1.68888476 103.00000000 -535.664442497877 6305
1.57788945 1.68888476 103.00000000 -535.663321525291 6306
1.58542714 1.68888476 103.00000000 -535.662217209349 6307
1.59296482 1.68888476 103.00000000 -535.661129676628 6308
1.60050251 1.68888476 103.00000000 -535.660059047378 6309
1.60804020 1.68888476 103.00000000 -535.659005438763 6310
1.61557789 1.68888476 103.00000000 -535.657968961716 6311
1.62311558 1.68888476 103.00000000 -535.656949719908 6312
1.63065327 1.68888476 103.00000000 -535.655947808279 6313
1.63819095 1.68888476 103.00000000 -535.654963314396 6314
1.64572864 1.68888476 103.00000000 -535.653996310607 6315
1.65326633 1.68888476 103.00000000 -535.653046861063 6316
1.66080402 1.68888476 103.00000000 -535.652115013715 6317
1.66834171 1.68888476 103.00000000 -535.651200800270 6318
1.67587940 1.68888476 103.00000000 -535.650304232787 6319
1.68341709 1.68888476 103.00000000 -535.649425301167 6320
1.69095477 1.68888476 103.00000000 -535.648563972074 6321
1.69849246 1.68888476 103.00000000 -535.647720180378 6322
1.70603015 1.68888476 103.00000000 -535.646893832360 6323
1.71356784 1.68888476 103.00000000 -535.646084800094 6324
1.72110553 1.68888476 103.00000000 -535.645292914495 6325
1.72864322 1.68888476 103.00000000 -535.644517971219 6326
1.73618090 1.68888476 103.00000000 -535.643759723213 6327
1.74371859 1.68888476 103.00000000 -535.643017878768 6328
1.75125628 1.68888476 103.00000000 -535.642292109314 6329
1.75879397 1.68888476 103.00000000 -535.641582047425 6330
1.76633166 1.68888476 103.00000000 -535.640887291085 6331
1.77386935 1.68888476 103.00000000 -535.640207411103 6332
1.78140704 1.68888476 103.00000000 -535.639541957287 6333
1.78894472 1.68888476 103.00000000 -535.638890467463 6334
1.79648241 1.68888476 103.00000000 -535.638252472207 6335
1.80402010 1.68888476 103.00000000 -535.637627509352 6336
1.81155779 1.68888476 103.00000000 -535.637015126903 6337
1.81909548 1.68888476 103.00000000 -535.636414892285 6338
1.82663317 1.68888476 103.00000000 -535.635826396022 6339
1.83417085 1.68888476 103.00000000 -535.635249257891 6340
1.84170854 1.68888476 103.00000000 -535.634683124853 6341
1.84924623 1.68888476 103.00000000 -535.634127677283 6342
1.85678392 1.68888476 103.00000000 -535.633582625405 6343
1.86432161 1.68888476 103.00000000 -535.633047708624 6344
1.87185930 1.68888476 103.00000000 -535.632522693318 6345
1.87939698 1.68888476 103.00000000 -535.632007371773 6346
1.88693467 1.68888476 103.00000000 -535.631501554537 6347
1.89447236 1.68888476 103.00000000 -535.631005073757 6348
1.90201005 1.68888476 103.00000000 -535.630517779168 6349
1.90954774 1.68888476 103.00000000 -535.630039529288 6350
1.91708543 1.68888476 103.00000000 -535.629570198173 6351
1.92462312 1.68888476 103.00000000 -535.629109666360 6352
1.93216080 1.68888476 103.00000000 -535.628657822451 6353
1.93969849 1.68888476 103.00000000 -535.628214561084 6354
1.94723618 1.68888476 103.00000000 -535.627779776669 6355
1.95477387 1.68888476 103.00000000 -535.627353369834 6356
1.96231156 1.68888476 103.00000000 -535.626935246913 6357
1.96984925 1.68888476 103.00000000 -535.626525310734 6358
1.97738693 1.68888476 103.00000000 -535.626123463816 6359
1.98492462 1.68888476 103.00000000 -535.625729610487 6360
1.99246231 1.68888476 103.00000000 -535.625343656671 6361
2.00000000 1.68888476 103.00000000 -535.624965505690 6362
2.01000000 1.68888476 103.00000000 -535.624475700681 6762
2.02000000 1.68888476 103.00000000 -535.623999229450 6763
2.03000000 1.68888476 103.00000000 -535.623535859590 6764
2.04000000 1.68888476 103.00000000 -535.623085355961 6765
2.05000000 1.68888476 103.00000000 -535.622647483315 6766
2.06000000 1.68888476 103.00000000 -535.622222001389 6767
2.07000000 1.68888476 103.00000000 -535.621808667487 6768
2.08000000 1.68888476 103.00000000 -535.621407238380 6769
2.09000000 1.68888476 103.00000000 -535.621017468081 6770
2.10000000 1.68888476 103.00000000 -535.620639110153 6771
2.11000000 1.68888476 103.00000000 -535.620271917311 6772
2.12000000 1.68888476 103.00000000 -535.619915641227 6773
2.13000000 1.68888476 103.00000000 -535.619570035721 6774
2.14000000 1.68888476 103.00000000 -535.619234853139 6775
2.15000000 1.68888476 103.00000000 -535.618909847102 6776
2.16000000 1.68888476 103.00000000 -535.618594772942 6777
2.17000000 1.68888476 103.00000000 -535.618289386758 6778
2.18000000 1.68888476 103.00000000 -535.617993446546 6779
2.19000000 1.68888476 103.00000000 -535.617706713190 6780
2.20000000 1.68888476 103.00000000 -535.617428949307 6781
2.21000000 1.68888476 103.00000000 -535.617159920052 6782
2.22000000 1.68888476 103.00000000 -535.616899393978 6783
2.23000000 1.68888476 103.00000000 -535.616647142611 6784
2.24000000 1.68888476 103.00000000 -535.616402940389 6785
2.25000000 1.68888476 103.00000000 -535.616166564670 6786
2.26000000 1.68888476 103.00000000 -535.615937797436 6787
2.27000000 1.68888476 103.00000000 -535.615716423718 6788
2.28000000 1.68888476 103.00000000 -535.615502232147 6789
2.29000000 1.68888476 103.00000000 -535.615295016344 6790
2.30000000 1.68888476 103.00000000 -535.615094573149 6791
2.31000000 1.68888476 103.00000000 -535.614900703373 6792
2.32000000 1.68888476 103.00000000 -535.614713208881 6793
2.33000000 1.68888476 103.00000000 -535.614531903382 6794
2.34000000 1.68888476 103.00000000 -535.614356598467 6795
2.35000000 1.68888476 103.00000000 -535.614187111427 6796
2.36000000 1.68888476 103.00000000 -535.614023263712 6797
2.37000000 1.68888476 103.00000000 -535.613864880280 6798
2.38000000 1.68888476 103.00000000 -535.613711795487 6799
2.39000000 1.68888476 103.00000000 -535.613563839026 6800
2.40000000 1.68888476 103.00000000 -535.613420851168 6801
2.41000000 1.68888476 103.00000000 -535.613282674042 6802
2.42000000 1.68888476 103.00000000 -535.613149154974 6803
2.43000000 1.68888476 103.00000000 -535.613020143985 6804
2.44000000 1.68888476 103.00000000 -535.612895497089 6805
2.45000000 1.68888476 103.00000000 -535.612775072722 6806
2.46000000 1.68888476 103.00000000 -535.612658731955 6807
2.47000000 1.68888476 103.00000000 -535.612546343657 6808
2.48000000 1.68888476 103.00000000 -535.612437777093 6809
2.49000000 1.68888476 103.00000000 -535.612332906610 6810
2.50000000 1.68888476 103.00000000 -535.612231609990 6811
2.51000000 1.68888476 103.00000000 -535.612133768008 6812
2.53020408 1.68888476 103.00000000 -535.611946162554 6813
2.55040816 1.68888476 103.00000000 -535.611771286197 6814
2.57061224 1.68888476 103.00000000 -535.611608287500 6815
2.59081633 1.68888476 103.00000000 -535.611456368164 6816
2.61102041 1.68888476 103.00000000 -535.611314775814 6817
2.63122449 1.68888476 103.00000000 -535.611182809960 6818
2.65142857 1.68888476 103.00000000 -535.611059813577 6819
2.67163265 1.68888476 103.00000000 -535.610945172094 6820
2.69183673 1.68888476 103.00000000 -535.610838305104 6821
2.71204082 1.68888476 103.00000000 -535.610738692405 6822
2.73224490 1.68888476 103.00000000 -535.610645812001 6823
2.75244898 1.68888476 103.00000000 -535.610559212771 6824
2.77265306 1.68888476 103.00000000 -535.610478452982 6825
2.79285714 1.68888476 103.00000000 -535.610403126529 6826
2.81306122 1.68888476 103.00000000 -535.610332855568 6827
2.83326531 1.68888476 103.00000000 -535.610267288498 6828
2.85346939 1.68888476 103.00000000 -535.610206095262 6829
2.87367347 1.68888476 103.00000000 -535.610148999958 6830
2.89387755 1.68888476 103.00000000 -535.610095651844 6831
2.91408163 1.68888476 103.00000000 -535.610045841105 6832
2.93428571 1.68888476 103.00000000 -535.609999301851 6833
2.95448980 1.68888476 103.00000000 -535.609955814049 6834
2.97469388 1.68888476 103.00000000 -535.609915161245 6835
2.99489796 1.68888476 103.00000000 -535.609877148654 6836
3.01510204 1.68888476 103.00000000 -535.609841588298 6837
3.03530612 1.68888476 103.00000000 -535.609808313030 6838
3.05551020 1.68888476 103.00000000 -535.609777162020 6839
3.07571429 1.68888476 103.00000000 -535.609747983628 6840
3.09591837 1.68888476 103.00000000 -535.609720655125 6841
3.11612245 1.68888476 103.00000000 -535.609695039415 6842
3.13632653 1.68888476 103.00000000 -535.609671022070 6843
3.15653061 1.68888476 103.00000000 -535.609648496604 6844
3.17673469 1.68888476 103.00000000 -535.609627351938 6845
3.19693878 1.68888476 103.00000000 -535.609607476884 6846
3.21714286 1.68888476 103.00000000 -535.609588826549 6847
3.23734694 1.68888476 103.00000000 -535.609571299154 6848
3.25755102 1.68888476 103.00000000 -535.609554816128 6849
3.27775510 1.68888476 103.00000000 -535.609539306341 6850
3.29795918 1.68888476 103.00000000 -535.609524708205 6851
3.31816327 1.68888476 103.00000000 -535.609510972950 6852
3.33836735 1.68888476 103.00000000 -535.609498013030 6853
3.35857143 1.68888476 103.00000000 -535.609485792802 6854
3.37877551 1.68888476 103.00000000 -535.609474263124 6855
3.39897959 1.68888476 103.00000000 -535.609463376825 6856
3.41918367 1.68888476 103.00000000 -535.609453102737 6857
3.43938776 1.68888476 103.00000000 -535.609443382731 6858
3.45959184 1.68888476 103.00000000 -535.609434190260 6859
3.47979592 1.68888476 103.00000000 -535.609425493030 6860
3.50000000 1.68888476 103.00000000 -535.609417255624 6861
end