structural
morse    2
rOHe    0   0   0    0          0.964461950
rOCle   0   0   0    0          1.688884760
alphae  0   0   0    0          103.0000000
am1     0   0   0    1          1.000000000
am2     0   0   0    0          1.000000000
end

linear
f    0   0   0    1     0.0000000
f    2   0   0    1     0.0000000
f    3   0   0    1     0.0000000
f    4   0   0    1     0.0000000
f    5   0   0    1     0.0000000
f    6   0   0    1     0.0000000
f    7   0   0    1     0.0000000
f    8   0   0    1     0.0000000
end

grid
0.96446195 1.68888476 103.00000000 -535.789142464675    1
0.95946195 1.68888476 103.00000000 -535.789262200604    2
0.96946195 1.68888476 103.00000000 -535.788975928652    3
0.95446195 1.68888476 103.00000000 -535.789333497623    4
0.97446195 1.68888476 103.00000000 -535.788764181179    5
0.94946195 1.68888476 103.00000000 -535.789354664626    6
0.97946195 1.68888476 103.00000000 -535.788508762044    7
0.94446195 1.68888476 103.00000000 -535.789323956214    8
0.98446195 1.68888476 103.00000000 -535.788211163920    9
0.93946195 1.68888476 103.00000000 -535.789239572627   10
0.98946195 1.68888476 103.00000000 -535.787872833264   11
0.93446195 1.68888476 103.00000000 -535.789099655465   12
0.99446195 1.68888476 103.00000000 -535.787495172476   13
0.92946195 1.68888476 103.00000000 -535.788902287223   14
0.99946195 1.68888476 103.00000000 -535.787079541394   15
0.92446195 1.68888476 103.00000000 -535.788645489260   16
1.00446195 1.68888476 103.00000000 -535.786627257575   17
0.91946195 1.68888476 103.00000000 -535.788327219665   18
1.00946195 1.68888476 103.00000000 -535.786139598871   19
0.91446195 1.68888476 103.00000000 -535.787945370771   20
1.01446195 1.68888476 103.00000000 -535.785617804086   21
0.90946195 1.68888476 103.00000000 -535.787497766309   22
1.01946195 1.68888476 103.00000000 -535.785063073740   23
0.90446195 1.68888476 103.00000000 -535.786982161574   24
1.02446195 1.68888476 103.00000000 -535.784476572265   25
0.89946195 1.68888476 103.00000000 -535.786396237749   26
1.02946195 1.68888476 103.00000000 -535.783859428685   27
0.89446195 1.68888476 103.00000000 -535.785737602073   28
1.03446195 1.68888476 103.00000000 -535.783212736930   29
0.88946195 1.68888476 103.00000000 -535.785003783571   30
1.03946195 1.68888476 103.00000000 -535.782537558511   31
0.88446195 1.68888476 103.00000000 -535.784192231907   32
1.04446195 1.68888476 103.00000000 -535.781834921749   33
0.87946195 1.68888476 103.00000000 -535.783300312536   34
1.04946195 1.68888476 103.00000000 -535.781105824595   35
0.87446195 1.68888476 103.00000000 -535.782325306236   36
1.05446195 1.68888476 103.00000000 -535.780351233818   37
0.86946195 1.68888476 103.00000000 -535.781264404119   38
1.05946195 1.68888476 103.00000000 -535.779572087531   39
0.86446195 1.68888476 103.00000000 -535.780114705889   40
1.06446195 1.68888476 103.00000000 -535.778769294371   41
0.85446195 1.68888476 103.00000000 -535.777536839124   42
1.07446195 1.68888476 103.00000000 -535.777096268094   43
0.84446195 1.68888476 103.00000000 -535.774566536662   44
1.08446195 1.68888476 103.00000000 -535.775338889914   45
1.08946195 1.68888476 103.00000000 -535.774430562406   46
0.83946195 1.68888476 103.00000000 -535.772925897348   47
1.11446195 1.68888476 103.00000000 -535.769622076022   48
0.81446195 1.68888476 103.00000000 -535.763021984856   49
0.76446195 1.68888476 103.00000000 -535.733035487252   50
1.26446195 1.68888476 103.00000000 -535.734950988824   51
0.66446195 1.68888476 103.00000000 -535.612041838671   52
1.36446195 1.68888476 103.00000000 -535.709600018973   53
1.46446195 1.68888476 103.00000000 -535.683857096750   55
0.64321608 1.68888476 103.00000000 -535.571057731643 6182
0.65075377 1.68888476 103.00000000 -535.586379788590 6183
0.65829146 1.68888476 103.00000000 -535.600830269309 6184
0.66582915 1.68888476 103.00000000 -535.614453282224 6185
0.67336683 1.68888476 103.00000000 -535.627290542164 6186
0.68090452 1.68888476 103.00000000 -535.639381579785 6187
0.68844221 1.68888476 103.00000000 -535.650763769232 6188
0.69597990 1.68888476 103.00000000 -535.661472522436 6189
0.70351759 1.68888476 103.00000000 -535.671541385502 6190
0.71105528 1.68888476 103.00000000 -535.681002147124 6191
0.71859296 1.68888476 103.00000000 -535.689885317620 6192
0.72613065 1.68888476 103.00000000 -535.698218693135 6193
0.73366834 1.68888476 103.00000000 -535.706029756264 6194
0.74120603 1.68888476 103.00000000 -535.713344213465 6195
0.74874372 1.68888476 103.00000000 -535.720186458276 6196
0.75628141 1.68888476 103.00000000 -535.726579644500 6197
0.76381910 1.68888476 103.00000000 -535.732545754439 6198
0.77135678 1.68888476 103.00000000 -535.738105657296 6199
0.77889447 1.68888476 103.00000000 -535.743279197306 6200
0.78643216 1.68888476 103.00000000 -535.748085207323 6201
0.79396985 1.68888476 103.00000000 -535.752541591051 6202
0.80150754 1.68888476 103.00000000 -535.756665367036 6203
0.80904523 1.68888476 103.00000000 -535.760472715054 6204
0.81658291 1.68888476 103.00000000 -535.763979016395 6205
0.82412060 1.68888476 103.00000000 -535.767198913917 6206
0.83165829 1.68888476 103.00000000 -535.770147487389 6207
0.83919598 1.68888476 103.00000000 -535.772835622826 6208
0.84673367 1.68888476 103.00000000 -535.775277120500 6209
0.85427136 1.68888476 103.00000000 -535.777483979058 6210
0.86180905 1.68888476 103.00000000 -535.779467621223 6211
0.86934673 1.68888476 103.00000000 -535.781238921293 6212
0.87688442 1.68888476 103.00000000 -535.782808241940 6213
0.88442211 1.68888476 103.00000000 -535.784185446224 6214
0.89195980 1.68888476 103.00000000 -535.785379932603 6215
0.89949749 1.68888476 103.00000000 -535.786400656045 6216
0.90703518 1.68888476 103.00000000 -535.787256149756 6217
0.91457286 1.68888476 103.00000000 -535.787954545590 6218
0.92211055 1.68888476 103.00000000 -535.788503597365 6219
0.92964824 1.68888476 103.00000000 -535.788910693956 6220
0.93718593 1.68888476 103.00000000 -535.789182881776 6221
0.94472362 1.68888476 103.00000000 -535.789326878408 6222
0.95226131 1.68888476 103.00000000 -535.789349092249 6223
0.95979899 1.68888476 103.00000000 -535.789255633450 6224
0.96733668 1.68888476 103.00000000 -535.789052331045 6225
0.97487437 1.68888476 103.00000000 -535.788744745072 6226
0.98241206 1.68888476 103.00000000 -535.788338180195 6227
0.98994975 1.68888476 103.00000000 -535.787837697657 6228
0.99748744 1.68888476 103.00000000 -535.787248126391 6229
1.00502513 1.68888476 103.00000000 -535.786574074096 6230
1.01256281 1.68888476 103.00000000 -535.785819939562 6231
1.02010050 1.68888476 103.00000000 -535.784989917178 6232
1.02763819 1.68888476 103.00000000 -535.784088013345 6233
1.03517588 1.68888476 103.00000000 -535.783118050000 6234
1.04271357 1.68888476 103.00000000 -535.782083675975 6235
1.05025126 1.68888476 103.00000000 -535.780988373490 6236
1.05778894 1.68888476 103.00000000 -535.779835468207 6237
1.06532663 1.68888476 103.00000000 -535.778628129483 6238
1.07286432 1.68888476 103.00000000 -535.777369387268 6239
1.08040201 1.68888476 103.00000000 -535.776062131684 6240
1.08793970 1.68888476 103.00000000 -535.774709121700 6241
1.09547739 1.68888476 103.00000000 -535.773312989916 6242
1.10301508 1.68888476 103.00000000 -535.771876249700 6243
1.11055276 1.68888476 103.00000000 -535.770401300231 6244
1.11809045 1.68888476 103.00000000 -535.768890426535 6245
1.12562814 1.68888476 103.00000000 -535.767345812773 6246
1.13316583 1.68888476 103.00000000 -535.765769542295 6247
1.14070352 1.68888476 103.00000000 -535.764163601292 6248
1.14824121 1.68888476 103.00000000 -535.762529884533 6249
1.15577889 1.68888476 103.00000000 -535.760870200380 6250
1.16331658 1.68888476 103.00000000 -535.759186266719 6251
1.17085427 1.68888476 103.00000000 -535.757479726227 6252
1.17839196 1.68888476 103.00000000 -535.755752142842 6253
1.18592965 1.68888476 103.00000000 -535.754005004418 6254
1.19346734 1.68888476 103.00000000 -535.752239728821 6255
1.20100503 1.68888476 103.00000000 -535.750457663823 6256
1.20854271 1.68888476 103.00000000 -535.748660928853 6257
1.21608040 1.68888476 103.00000000 -535.746849031451 6258
1.22361809 1.68888476 103.00000000 -535.745024002019 6259
1.23115578 1.68888476 103.00000000 -535.743186937069 6260
1.23869347 1.68888476 103.00000000 -535.741338876542 6261
1.24623116 1.68888476 103.00000000 -535.739480803459 6262
1.25376884 1.68888476 103.00000000 -535.737613650574 6263
1.26130653 1.68888476 103.00000000 -535.735738288364 6264
1.26884422 1.68888476 103.00000000 -535.733855544980 6265
1.27638191 1.68888476 103.00000000 -535.731966194136 6266
1.28391960 1.68888476 103.00000000 -535.730070961868 6267
1.29145729 1.68888476 103.00000000 -535.728170522980 6268
1.29899497 1.68888476 103.00000000 -535.726265508128 6269
1.30653266 1.68888476 103.00000000 -535.724356491444 6270
1.31407035 1.68888476 103.00000000 -535.722444006851 6271
1.32160804 1.68888476 103.00000000 -535.720528537220 6272
1.32914573 1.68888476 103.00000000 -535.718610516457 6273
1.33668342 1.68888476 103.00000000 -535.716690328029 6274
1.34422111 1.68888476 103.00000000 -535.714768304601 6275
1.35175879 1.68888476 103.00000000 -535.712844727634 6276
1.35929648 1.68888476 103.00000000 -535.710919815806 6277
1.36683417 1.68888476 103.00000000 -535.708993735028 6278
1.37437186 1.68888476 103.00000000 -535.707066586890 6279
1.38190955 1.68888476 103.00000000 -535.705138403407 6280
1.38944724 1.68888476 103.00000000 -535.703209140403 6281
1.39698492 1.68888476 103.00000000 -535.701278672546 6282
1.40452261 1.68888476 103.00000000 -535.699346770308 6283
1.41206030 1.68888476 103.00000000 -535.697413099790 6284
1.41959799 1.68888476 103.00000000 -535.695477193003 6285
1.42713568 1.68888476 103.00000000 -535.693538422261 6286
1.43467337 1.68888476 103.00000000 -535.691595962499 6287
1.44221106 1.68888476 103.00000000 -535.689648738360 6288
1.44974874 1.68888476 103.00000000 -535.687695349676 6289
1.45728643 1.68888476 103.00000000 -535.685733946216 6290
1.46482412 1.68888476 103.00000000 -535.683762066658 6291
1.47236181 1.68888476 103.00000000 -535.681776328188 6292
1.47989950 1.68888476 103.00000000 -535.679771879942 6293
1.48743719 1.68888476 103.00000000 -535.677741206009 6294
1.49497487 1.68888476 103.00000000 -535.675670703884 6295
3.01510204 1.68888476 103.00000000 -535.609841588298 6837
3.03530612 1.68888476 103.00000000 -535.609808313030 6838
3.05551020 1.68888476 103.00000000 -535.609777162020 6839
3.07571429 1.68888476 103.00000000 -535.609747983628 6840
3.09591837 1.68888476 103.00000000 -535.609720655125 6841
3.11612245 1.68888476 103.00000000 -535.609695039415 6842
3.13632653 1.68888476 103.00000000 -535.609671022070 6843
3.15653061 1.68888476 103.00000000 -535.609648496604 6844
3.17673469 1.68888476 103.00000000 -535.609627351938 6845
3.19693878 1.68888476 103.00000000 -535.609607476884 6846
3.21714286 1.68888476 103.00000000 -535.609588826549 6847
3.23734694 1.68888476 103.00000000 -535.609571299154 6848
3.25755102 1.68888476 103.00000000 -535.609554816128 6849
3.27775510 1.68888476 103.00000000 -535.609539306341 6850
3.29795918 1.68888476 103.00000000 -535.609524708205 6851
3.31816327 1.68888476 103.00000000 -535.609510972950 6852
3.33836735 1.68888476 103.00000000 -535.609498013030 6853
3.35857143 1.68888476 103.00000000 -535.609485792802 6854
3.37877551 1.68888476 103.00000000 -535.609474263124 6855
3.39897959 1.68888476 103.00000000 -535.609463376825 6856
3.41918367 1.68888476 103.00000000 -535.609453102737 6857
3.43938776 1.68888476 103.00000000 -535.609443382731 6858
3.45959184 1.68888476 103.00000000 -535.609434190260 6859
3.47979592 1.68888476 103.00000000 -535.609425493030 6860
3.50000000 1.68888476 103.00000000 -535.609417255624 6861
end