structural
morse    2
rOHe    0   0   0    0          0.96446195
rOCle   0   0   0    0          1.68888476
alphae  0   0   0    0          103.000000
am1     0   0   0    0          1.00000000
am2     0   0   0    0          1.00000000
end

linear
f    0   0   0    1     0.00000
f    0   0   1    1     0.00000
f    0   0   2    1     0.00000
f    0   0   3    1     0.00000
f    0   0   4    1     0.00000
f    0   0   5    1     0.00000
f    0   0   6    1     0.00000
f    0   0   7    1     0.00000
f    0   0   8    1     0.00000
f    0   0   9    1     0.00000
f    0   0  10    1     0.00000
f    0   0  11    1     0.00000
f    0   0  12    1     0.00000
end

grid
0.96446195000000 1.68888476000000 103.00000000000000 -535.47563143287516
0.96446195000000 1.68888476000000  44.22110553000000 -535.33112445055372
0.96446195000000 1.68888476000000  45.62814070000000 -535.34095890249932
0.96446195000000 1.68888476000000  46.33165829000000 -535.34559691434447
0.96446195000000 1.68888476000000  47.03517588000000 -535.35006157827672
0.96446195000000 1.68888476000000  47.73869347000000 -535.35436193364978
0.96446195000000 1.68888476000000  48.44221106000000 -535.35850658644506
0.96446195000000 1.68888476000000  49.14572864000000 -535.36250369820846
0.96446195000000 1.68888476000000  49.84924623000000 -535.36636100037163
0.96446195000000 1.68888476000000  50.55276382000000 -535.37008580535291
0.96446195000000 1.68888476000000  51.25628141000000 -535.37368501102355
0.96446195000000 1.68888476000000  54.77386935000000 -535.39001091101272
0.96446195000000 1.68888476000000  55.47738693000000 -535.39297969998393
0.96446195000000 1.68888476000000  56.18090452000000 -535.39586063495813
0.96446195000000 1.68888476000000  56.88442211000000 -535.39865778398678
0.96446195000000 1.68888476000000  57.58793970000000 -535.40137491670805
0.96446195000000 1.68888476000000  58.29145729000000 -535.40401553854804
0.96446195000000 1.68888476000000  58.99497487000000 -535.40658289241924
0.96446195000000 1.68888476000000  59.69849246000000 -535.40907998418061
0.96446195000000 1.68888476000000  60.40201005000000 -535.41150959201570
0.96446195000000 1.68888476000000  61.10552764000000 -535.41387428083272
0.96446195000000 1.68888476000000  62.51256281000000 -535.41841818077512
0.96446195000000 1.68888476000000  63.91959799000000 -535.42272846415597
0.96446195000000 1.68888476000000  64.62311558000000 -535.42480053504380
0.96446195000000 1.68888476000000  65.32663316999999 -535.42681935043333
0.96446195000000 1.68888476000000  66.03015075000000 -535.42878635108855
0.96446195000000 1.68888476000000  66.73366833999999 -535.43070285341162
0.96446195000000 1.68888476000000  67.43718593000000 -535.43257006991371
0.96446195000000 1.68888476000000  68.14070352000000 -535.43438911571661
0.96446195000000 1.68888476000000  68.84422111000001 -535.43616101216708
0.96446195000000 1.68888476000000  69.54773869000000 -535.43788670071945
0.96446195000000 1.68888476000000  70.25125628000001 -535.43956704813093
0.96446195000000 1.68888476000000  70.95477387000000 -535.44120284951248
0.96446195000000 1.68888476000000  71.65829146000000 -535.44279484011588
0.96446195000000 1.68888476000000  72.36180905000001 -535.44434369727639
0.96446195000000 1.68888476000000  73.06532663000000 -535.44585005012561
0.96446195000000 1.68888476000000  73.76884422000001 -535.44731447309607
0.96446195000000 1.68888476000000  74.47236181000000 -535.44873751003297
0.96446195000000 1.68888476000000  75.17587940000000 -535.45011965653532
0.96446195000000 1.68888476000000  75.87939698000000 -535.45146138467044
0.96446195000000 1.68888476000000  76.58291457000000 -535.45276312804128
0.96446195000000 1.68888476000000  77.28643216000000 -535.45402529185742
0.96446195000000 1.68888476000000  77.98994974999999 -535.45524826835310
0.96446195000000 1.68888476000000  78.69346734000000 -535.45643242090011
0.96446195000000 1.68888476000000  79.39698491999999 -535.45757809278712
0.96446195000000 1.68888476000000  80.10050251000000 -535.45868561715497
0.96446195000000 1.68888476000000  80.80402010000000 -535.45975530615101
0.96446195000000 1.68888476000000  81.50753769000001 -535.46078746904732
0.96446195000000 1.68888476000000  82.21105528000000 -535.46178239684980
0.96446195000000 1.68888476000000  82.91457286000001 -535.46274037354976
0.96446195000000 1.68888476000000  83.61809045000000 -535.46366167968938
0.96446195000000 1.68888476000000  84.32160804000000 -535.46454658951120
0.96446195000000 1.68888476000000  85.02512563000001 -535.46539536437081
0.96446195000000 1.68888476000000  85.72864322000000 -535.46620827104994
0.96446195000000 1.68888476000000  86.43216080000001 -535.46698556874412
0.96446195000000 1.68888476000000  87.13567839000000 -535.46772751819003
0.96446195000000 1.68888476000000  87.83919598000000 -535.46843436894221
0.96446195000000 1.68888476000000  88.54271357000000 -535.46910638527470
0.96446195000000 1.68888476000000  89.24623115999999 -535.46974381513519
0.96446195000000 1.68888476000000  89.94974874000000 -535.47034691331805
0.96446195000000 1.68888476000000  90.65326632999999 -535.47091593295079
0.96446195000000 1.68888476000000  91.35678392000000 -535.47145113475256
0.96446195000000 1.68888476000000  92.06030151000000 -535.47195277106152
0.96446195000000 1.68888476000000  92.76381910000001 -535.47242109516253
0.96446195000000 1.68888476000000  93.46733668000000 -535.47285636898471
0.96446195000000 1.68888476000000  94.17085427000001 -535.47325885135308
0.96446195000000 1.68888476000000  94.87437186000000 -535.47362880243998
0.96446195000000 1.68888476000000  95.57788945000000 -535.47396648292772
0.96446195000000 1.68888476000000  96.28140704000000 -535.47427215840219
0.96446195000000 1.68888476000000  96.98492462000000 -535.47454609601743
0.96446195000000 1.68888476000000  97.68844221000001 -535.47478856053874
0.96446195000000 1.68888476000000  98.39195980000000 -535.47499982372938
0.96446195000000 1.68888476000000  99.09547739000000 -535.47518015861658
0.96446195000000 1.68888476000000  99.79899497000000 -535.47532983528640
0.96446195000000 1.68888476000000 100.50251256000000 -535.47544913208753
0.96446195000000 1.68888476000000 101.20603015000000 -535.47553832441167
0.96446195000000 1.68888476000000 101.90954773999999 -535.47559769179429
0.96446195000000 1.68888476000000 102.61306533000000 -535.47562751848602
end