structural
morse    2
rOHe    0   0   0    0          0.96446195
rOCle   0   0   0    0          1.68888476
alphae  0   0   0    0          103.000000
am1     0   0   0    0          1.00000000
am2     0   0   0    0          1.00000000
end

linear
f    0   0   0    1     0.0000000
f    1   0   0    1     0.0000000
f    2   0   0    1     0.0000000
f    3   0   0    1     0.0000000
f    4   0   0    1     0.0000000
f    5   0   0    1     0.0000000
f    6   0   0    1     0.0000000
f    7   0   0    1     0.0000000
f    8   0   0    1     0.0000000
f    9   0   0    1     0.0000000
f   10   0   0    1     0.0000000
f   11   0   0    1     0.0000000
f   12   0   0    1     0.0000000
end

grid
0.96446195000000 1.68888476000000 103.00000000000000 -535.47563143287516
0.95946195000000 1.68888476000000 103.00000000000000 -535.47560845604005
0.99446195000000 1.68888476000000 103.00000000000000 -535.47485406978296
0.92946195000000 1.68888476000000 103.00000000000000 -535.47440529413291
0.99946195000000 1.68888476000000 103.00000000000000 -535.47458577281691
0.92446195000000 1.68888476000000 103.00000000000000 -535.47401007719100
1.00446195000000 1.68888476000000 103.00000000000000 -535.47428151352801
0.91946195000000 1.68888476000000 103.00000000000000 -535.47355397759395
1.00946195000000 1.68888476000000 103.00000000000000 -535.47394258156396
0.91446195000000 1.68888476000000 103.00000000000000 -535.47303488639204
1.01446195000000 1.68888476000000 103.00000000000000 -535.47357021912899
0.90946195000000 1.68888476000000 103.00000000000000 -535.47245062547097
1.01946195000000 1.68888476000000 103.00000000000000 -535.47316564158405
0.90446195000000 1.68888476000000 103.00000000000000 -535.47179894286205
1.02446195000000 1.68888476000000 103.00000000000000 -535.47273002061002
0.89946195000000 1.68888476000000 103.00000000000000 -535.47107751590795
1.02946195000000 1.68888476000000 103.00000000000000 -535.47226449542200
0.89446195000000 1.68888476000000 103.00000000000000 -535.47028394780602
1.03446195000000 1.68888476000000 103.00000000000000 -535.47177016762896
0.88946195000000 1.68888476000000 103.00000000000000 -535.46941576925292
1.03946195000000 1.68888476000000 103.00000000000000 -535.47124810873697
0.88446195000000 1.68888476000000 103.00000000000000 -535.46847041975695
1.04446195000000 1.68888476000000 103.00000000000000 -535.47069935982802
0.87946195000000 1.68888476000000 103.00000000000000 -535.46744526572695
1.04946195000000 1.68888476000000 103.00000000000000 -535.47012492687497
1.05446195000000 1.68888476000000 103.00000000000000 -535.46952578828495
0.86946195000000 1.68888476000000 103.00000000000000 -535.46514456274701
1.05946195000000 1.68888476000000 103.00000000000000 -535.46890289206397
1.06446195000000 1.68888476000000 103.00000000000000 -535.46825715986699
0.85446195000000 1.68888476000000 103.00000000000000 -535.46102395566697
1.07446195000000 1.68888476000000 103.00000000000000 -535.46690072827698
1.08446195000000 1.68888476000000 103.00000000000000 -535.46546332424396
0.83946195000000 1.68888476000000 103.00000000000000 -535.45602488716804
1.11446195000000 1.68888476000000 103.00000000000000 -535.46072773856395
0.81446195000000 1.68888476000000 103.00000000000000 -535.44548477867500
0.76446195000000 1.68888476000000 103.00000000000000 -535.41426504783794
1.26446195000000 1.68888476000000 103.00000000000000 -535.43156578764001
1.36446195000000 1.68888476000000 103.00000000000000 -535.41073837341401
1.46446195000000 1.68888476000000 103.00000000000000 -535.39095775040505
1.66446195000000 1.68888476000000 103.00000000000000 -535.35781867077117
0.64321608000000 1.68888476000000 103.00000000000000 -535.24950347467507
0.65075377000000 1.68888476000000 103.00000000000000 -535.26499014333569
0.65829146000000 1.68888476000000 103.00000000000000 -535.27960629862719
0.68090452000000 1.68888476000000 103.00000000000000 -535.31866121774101
0.68844221000000 1.68888476000000 103.00000000000000 -535.33021349268324
0.69597990000000 1.68888476000000 103.00000000000000 -535.34109345024717
0.70351759000000 1.68888476000000 103.00000000000000 -535.35133464322939
0.71105528000000 1.68888476000000 103.00000000000000 -535.36097068431491
0.71859296000000 1.68888476000000 103.00000000000000 -535.37002805009377
0.72613065000000 1.68888476000000 103.00000000000000 -535.37853714546748
0.73366834000000 1.68888476000000 103.00000000000000 -535.38652506157393
0.74120603000000 1.68888476000000 103.00000000000000 -535.39401749983131
0.74874372000000 1.68888476000000 103.00000000000000 -535.40103885711767
0.75628141000000 1.68888476000000 103.00000000000000 -535.40761229269833
0.76381910000000 1.68888476000000 103.00000000000000 -535.41375979423219
0.77135678000000 1.68888476000000 103.00000000000000 -535.41950223262575
0.77889447000000 1.68888476000000 103.00000000000000 -535.42485946141403
0.78643216000000 1.68888476000000 103.00000000000000 -535.42985031856927
0.79396985000000 1.68888476000000 103.00000000000000 -535.43449271699853
0.80150754000000 1.68888476000000 103.00000000000000 -535.43880368353632
0.80904523000000 1.68888476000000 103.00000000000000 -535.44279940475315
0.81658291000000 1.68888476000000 103.00000000000000 -535.44649654268608
0.82412060000000 1.68888476000000 103.00000000000000 -535.44990715241079
0.83165829000000 1.68888476000000 103.00000000000000 -535.45304647766977
0.83919598000000 1.68888476000000 103.00000000000000 -535.45592777360810
0.84673367000000 1.68888476000000 103.00000000000000 -535.45856365833879
0.86180905000000 1.68888476000000 103.00000000000000 -535.46314663404542
0.86934673000000 1.68888476000000 103.00000000000000 -535.46511604259467
0.87688442000000 1.68888476000000 103.00000000000000 -535.46688473248082
0.88442211000000 1.68888476000000 103.00000000000000 -535.46846256961589
0.89195980000000 1.68888476000000 103.00000000000000 -535.46985896844433
0.89949749000000 1.68888476000000 103.00000000000000 -535.47108289485459
0.90703518000000 1.68888476000000 103.00000000000000 -535.47214289090425
0.91457286000000 1.68888476000000 103.00000000000000 -535.47304710145386
0.92211055000000 1.68888476000000 103.00000000000000 -535.47380329267264
0.92964824000000 1.68888476000000 103.00000000000000 -535.47441887046386
0.93718593000000 1.68888476000000 103.00000000000000 -535.47490089650273
0.94472362000000 1.68888476000000 103.00000000000000 -535.47525610887146
0.95226131000000 1.68888476000000 103.00000000000000 -535.47549092568477
0.95979899000000 1.68888476000000 103.00000000000000 -535.47561148889440
0.96733668000000 1.68888476000000 103.00000000000000 -535.47562364068210
0.97487437000000 1.68888476000000 103.00000000000000 -535.47553296845945
0.98241206000000 1.68888476000000 103.00000000000000 -535.47534479987405
0.98994975000000 1.68888476000000 103.00000000000000 -535.47506422350943
1.02763819000000 1.68888476000000 103.00000000000000 -535.47243769080217
1.03517588000000 1.68888476000000 103.00000000000000 -535.47169729561529
1.04271357000000 1.68888476000000 103.00000000000000 -535.47089421550402
1.05025126000000 1.68888476000000 103.00000000000000 -535.47003196415653
1.05778894000000 1.68888476000000 103.00000000000000 -535.46911390157811
1.06532663000000 1.68888476000000 103.00000000000000 -535.46814323944636
1.07286432000000 1.68888476000000 103.00000000000000 -535.46712304252378
1.08793970000000 1.68888476000000 103.00000000000000 -535.46494564597833
1.09547739000000 1.68888476000000 103.00000000000000 -535.46379392245660
1.10301508000000 1.68888476000000 103.00000000000000 -535.46260363271563
1.11055276000000 1.68888476000000 103.00000000000000 -535.46137722377694
1.11809045000000 1.68888476000000 103.00000000000000 -535.46011703383670
1.12562814000000 1.68888476000000 103.00000000000000 -535.45882529801111
1.13316583000000 1.68888476000000 103.00000000000000 -535.45750415757641
1.14070352000000 1.68888476000000 103.00000000000000 -535.45615565304968
1.14824121000000 1.68888476000000 103.00000000000000 -535.45478174200207
1.16331658000000 1.68888476000000 103.00000000000000 -535.45196510736321
1.17085427000000 1.68888476000000 103.00000000000000 -535.45052588110855
1.17839196000000 1.68888476000000 103.00000000000000 -535.44906825936346
1.19346734000000 1.68888476000000 103.00000000000000 -535.44610487825082
1.20100503000000 1.68888476000000 103.00000000000000 -535.44460114046967
1.20854271000000 1.68888476000000 103.00000000000000 -535.44308488357206
1.21608040000000 1.68888476000000 103.00000000000000 -535.44155742266275
1.22361809000000 1.68888476000000 103.00000000000000 -535.44002001385718
1.23115578000000 1.68888476000000 103.00000000000000 -535.43847385964978
1.23869347000000 1.68888476000000 103.00000000000000 -535.43692011790370
1.24623116000000 1.68888476000000 103.00000000000000 -535.43535988317592
1.25376884000000 1.68888476000000 103.00000000000000 -535.43379422159990
1.26130653000000 1.68888476000000 103.00000000000000 -535.43222413468811
1.28391960000000 1.68888476000000 103.00000000000000 -535.42749681550447
1.29145729000000 1.68888476000000 103.00000000000000 -535.42591831087168
1.29899497000000 1.68888476000000 103.00000000000000 -535.42433982583066
1.30653266000000 1.68888476000000 103.00000000000000 -535.42276213361538
1.31407035000000 1.68888476000000 103.00000000000000 -535.42118598227717
1.32160804000000 1.68888476000000 103.00000000000000 -535.41961208226599
1.32914573000000 1.68888476000000 103.00000000000000 -535.41804111558224
1.33668342000000 1.68888476000000 103.00000000000000 -535.41647373454123
1.34422111000000 1.68888476000000 103.00000000000000 -535.41491056361042
1.35929648000000 1.68888476000000 103.00000000000000 -535.41179922130812
1.37437186000000 1.68888476000000 103.00000000000000 -535.40871155693765
1.38190955000000 1.68888476000000 103.00000000000000 -535.40717790210397
1.38944724000000 1.68888476000000 103.00000000000000 -535.40565167428531
1.39698492000000 1.68888476000000 103.00000000000000 -535.40413333586901
1.40452261000000 1.68888476000000 103.00000000000000 -535.40262332079271
1.41206030000000 1.68888476000000 103.00000000000000 -535.40112204785976
1.41959799000000 1.68888476000000 103.00000000000000 -535.39962991664095
1.42713568000000 1.68888476000000 103.00000000000000 -535.39814730998478
1.43467337000000 1.68888476000000 103.00000000000000 -535.39667459023133
1.44221106000000 1.68888476000000 103.00000000000000 -535.39521210738701
1.44974874000000 1.68888476000000 103.00000000000000 -535.39376019231156
1.45728643000000 1.68888476000000 103.00000000000000 -535.39231915784615
1.46482412000000 1.68888476000000 103.00000000000000 -535.39088930997877
1.47236181000000 1.68888476000000 103.00000000000000 -535.38947093183663
1.47989950000000 1.68888476000000 103.00000000000000 -535.38806429909835
1.48743719000000 1.68888476000000 103.00000000000000 -535.38666966974893
1.49497487000000 1.68888476000000 103.00000000000000 -535.38528729359462
1.50251256000000 1.68888476000000 103.00000000000000 -535.38391739852011
1.51005025000000 1.68888476000000 103.00000000000000 -535.38256021189534
1.51758794000000 1.68888476000000 103.00000000000000 -535.38121594209315
1.52512563000000 1.68888476000000 103.00000000000000 -535.37988478620036
1.53266332000000 1.68888476000000 103.00000000000000 -535.37856693533308
1.54020101000000 1.68888476000000 103.00000000000000 -535.37726256467511
1.54773869000000 1.68888476000000 103.00000000000000 -535.37597184324932
1.55527638000000 1.68888476000000 103.00000000000000 -535.37469492468574
1.56281407000000 1.68888476000000 103.00000000000000 -535.37343195816970
1.57035176000000 1.68888476000000 103.00000000000000 -535.37218307628439
1.57788945000000 1.68888476000000 103.00000000000000 -535.37094841609633
1.58542714000000 1.68888476000000 103.00000000000000 -535.36972808893006
1.59296482000000 1.68888476000000 103.00000000000000 -535.36852221140339
1.60050251000000 1.68888476000000 103.00000000000000 -535.36733087667199
1.61557789000000 1.68888476000000 103.00000000000000 -535.36499222648160
1.62311558000000 1.68888476000000 103.00000000000000 -535.36384507080288
1.63065327000000 1.68888476000000 103.00000000000000 -535.36271278821118
1.63819095000000 1.68888476000000 103.00000000000000 -535.36159544800466
1.64572864000000 1.68888476000000 103.00000000000000 -535.36049309751445
1.65326633000000 1.68888476000000 103.00000000000000 -535.35940578608620
1.66080402000000 1.68888476000000 103.00000000000000 -535.35833356190005
1.66834171000000 1.68888476000000 103.00000000000000 -535.35727644968654
1.67587940000000 1.68888476000000 103.00000000000000 -535.35623448414572
1.68341709000000 1.68888476000000 103.00000000000000 -535.35520767939329
1.69095477000000 1.68888476000000 103.00000000000000 -535.35419605877610
1.69849246000000 1.68888476000000 103.00000000000000 -535.35319962340668
1.70603015000000 1.68888476000000 103.00000000000000 -535.35221838039752
1.71356784000000 1.68888476000000 103.00000000000000 -535.35125232474888
1.72110553000000 1.68888476000000 103.00000000000000 -535.35030144475309
1.72864322000000 1.68888476000000 103.00000000000000 -535.34936572541051
1.73618090000000 1.68888476000000 103.00000000000000 -535.34844515110524
1.74371859000000 1.68888476000000 103.00000000000000 -535.34753969207736
1.75125628000000 1.68888476000000 103.00000000000000 -535.34664931887846
1.76633166000000 1.68888476000000 103.00000000000000 -535.34491367419673
1.77386935000000 1.68888476000000 103.00000000000000 -535.34406831676301
1.78140704000000 1.68888476000000 103.00000000000000 -535.34323786674076
1.78894472000000 1.68888476000000 103.00000000000000 -535.34242227465074
1.79648241000000 1.68888476000000 103.00000000000000 -535.34162147376355
1.81155779000000 1.68888476000000 103.00000000000000 -535.34006399429757
1.81909548000000 1.68888476000000 103.00000000000000 -535.33930717546548
1.82663317000000 1.68888476000000 103.00000000000000 -535.33856486497882
1.84170854000000 1.68888476000000 103.00000000000000 -535.33712345391803
1.84924623000000 1.68888476000000 103.00000000000000 -535.33642418095928
1.85678392000000 1.68888476000000 103.00000000000000 -535.33573907381947
1.86432161000000 1.68888476000000 103.00000000000000 -535.33506803201021
1.87185930000000 1.68888476000000 103.00000000000000 -535.33441097147033
1.87939698000000 1.68888476000000 103.00000000000000 -535.33376777765443
1.88693467000000 1.68888476000000 103.00000000000000 -535.33313835275828
1.90201005000000 1.68888476000000 103.00000000000000 -535.33192036702360
1.91708543000000 1.68888476000000 103.00000000000000 -535.33075612887706
1.92462312000000 1.68888476000000 103.00000000000000 -535.33019387285731
1.93216080000000 1.68888476000000 103.00000000000000 -535.32964470487707
1.93969849000000 1.68888476000000 103.00000000000000 -535.32910849226892
1.94723618000000 1.68888476000000 103.00000000000000 -535.32858511813151
1.95477387000000 1.68888476000000 103.00000000000000 -535.32807445909884
1.96231156000000 1.68888476000000 103.00000000000000 -535.32757637896577
1.96984925000000 1.68888476000000 103.00000000000000 -535.32709075161642
1.97738693000000 1.68888476000000 103.00000000000000 -535.32661745032431
1.98492462000000 1.68888476000000 103.00000000000000 -535.32615633516969
end