structural
morse    2
rOHe    0   0   0    0          0.95055176000
rOCle   0   0   0    0          1.68718491000
alphae  0   0   0    0          103.259542820
am1     0   0   0    0          1.00000000
am2     0   0   0    0          1.00000000
end

linear
f    0   0   0    1     0.0000000
f    0   0   1    1     0.0000000
f    0   0   2    1     0.0000000
f    0   0   3    1     0.0000000
f    0   0   4    1     0.0000000
f    0   0   5    1     0.0000000
f    0   0   6    1     0.0000000
f    0   0   7    1     0.0000000
f    0   0   8    1     0.0000000
f    0   0   9    1     0.0000000
f    0   0  10    1     0.0000000
f    0   0  11    1     0.0000000
f    0   0  12    1     0.0000000
end

grid
0.96446195 1.68888476 103.00000000 -535.789142464675    1
0.96446195 1.68888476 104.00000000 -535.789121193999  120
0.96446195 1.68888476 102.00000000 -535.789102572713  121
0.96446195 1.68888476 105.00000000 -535.789039610659  122
0.96446195 1.68888476 101.00000000 -535.789000673955  123
0.96446195 1.68888476 105.50000000 -535.788976469376  124
0.96446195 1.68888476 100.50000000 -535.788926209370  125
0.96446195 1.68888476 106.00000000 -535.788898571591  126
0.96446195 1.68888476 100.00000000 -535.788835929207  127
0.96446195 1.68888476 107.00000000 -535.788698938603  128
0.96446195 1.68888476  98.00000000 -535.788314582426  129
0.96446195 1.68888476 108.00000000 -535.788441580312  130
0.96446195 1.68888476  98.00000000 -535.788314582426  131
0.96446195 1.68888476 110.50000000 -535.787551388688  132
0.96446195 1.68888476  95.50000000 -535.787294708746  133
0.96446195 1.68888476  93.00000000 -535.785853969239  134
0.96446195 1.68888476 115.50000000 -535.784760728564  135
0.96446195 1.68888476  90.50000000 -535.783980006559  136
0.96446195 1.68888476 118.00000000 -535.782888810795  137
0.96446195 1.68888476  88.00000000 -535.781660710153  138
0.96446195 1.68888476 120.50000000 -535.780718805868  139
0.96446195 1.68888476  85.50000000 -535.778884169104  140
0.96446195 1.68888476 123.00000000 -535.778266012503  141
0.96446195 1.68888476  83.00000000 -535.775638561132  142
0.96446195 1.68888476 125.50000000 -535.775546305794  143
0.96446195 1.68888476  80.50000000 -535.771911936387  144
0.96446195 1.68888476 128.00000000 -535.772576256663  145
0.96446195 1.68888476  78.00000000 -535.767691834067  146
0.96446195 1.68888476 133.00000000 -535.765955711383  147
0.96446195 1.68888476  73.00000000 -535.757714627892  148
0.96446195 1.68888476 138.00000000 -535.758556296525  149
0.96446195 1.68888476  68.00000000 -535.745563127830  150
0.96446195 1.68888476 143.00000000 -535.750551036154  151
0.96446195 1.68888476  63.00000000 -535.730997284660  152
0.96446195 1.68888476 148.00000000 -535.742139914798  153
0.96446195 1.68888476  58.00000000 -535.713573584923  154
0.96446195 1.68888476 153.00000000 -535.733556302920  155
0.96446195 1.68888476  53.00000000 -535.692469182285  156
0.96446195 1.68888476 163.00000000 -535.717118563229  157
0.96446195 1.68888476  43.00000000 -535.632495156149  158
0.96446195 1.68888476 173.00000000 -535.705372109285  159
0.96446195 1.68888476  40.00000000 -535.607253821556 6563
0.96446195 1.68888476  40.70351759 -535.613573536672 6564
0.96446195 1.68888476  41.40703518 -535.619638599159 6565
0.96446195 1.68888476  42.11055276 -535.625461433566 6566
0.96446195 1.68888476  42.81407035 -535.631054079866 6567
0.96446195 1.68888476  43.51758794 -535.636428170548 6568
0.96446195 1.68888476  44.22110553 -535.641594912605 6569
0.96446195 1.68888476  44.92462312 -535.646565071372 6570
0.96446195 1.68888476  45.62814070 -535.651349703614 6571
0.96446195 1.68888476  46.33165829 -535.655957194680 6572
0.96446195 1.68888476  47.03517588 -535.660397658682 6573
0.96446195 1.68888476  47.73869347 -535.664680023576 6574
0.96446195 1.68888476  48.44221106 -535.668812755196 6575
0.96446195 1.68888476  49.14572864 -535.672803863500 6576
0.96446195 1.68888476  49.84924623 -535.676660908947 6577
0.96446195 1.68888476  50.55276382 -535.680391011927 6578
0.96446195 1.68888476  51.25628141 -535.684000864043 6579
0.96446195 1.68888476  51.95979899 -535.687496741080 6580
0.96446195 1.68888476  52.66331658 -535.690884517649 6581
0.96446195 1.68888476  53.36683417 -535.694169679707 6582
0.96446195 1.68888476  54.07035176 -535.697357343989 6583
0.96446195 1.68888476  54.77386935 -535.700452272411 6584
0.96446195 1.68888476  55.47738693 -535.703458889389 6585
0.96446195 1.68888476  56.18090452 -535.706381299092 6586
0.96446195 1.68888476  56.88442211 -535.709223302549 6587
0.96446195 1.68888476  57.58793970 -535.711988416114 6588
0.96446195 1.68888476  58.29145729 -535.714679884044 6589
0.96446195 1.68888476  58.99497487 -535.717300699963 6590
0.96446195 1.68888476  59.69849246 -535.719853620939 6591
0.96446195 1.68888476  60.40201005 -535.722341183218 6592
0.96446195 1.68888476  61.10552764 -535.724765715522 6593
0.96446195 1.68888476  61.80904523 -535.727129354300 6594
0.96446195 1.68888476  62.51256281 -535.729434060981 6595
0.96446195 1.68888476  63.21608040 -535.731681632137 6596
0.96446195 1.68888476  63.91959799 -535.733873710433 6597
0.96446195 1.68888476  64.62311558 -535.736011800200 6598
0.96446195 1.68888476  65.32663317 -535.738097275926 6599
0.96446195 1.68888476  66.03015075 -535.740131394395 6600
0.96446195 1.68888476  66.73366834 -535.742115307892 6601
0.96446195 1.68888476  67.43718593 -535.744050065128 6602
0.96446195 1.68888476  68.14070352 -535.745936628406 6603
0.96446195 1.68888476  68.84422111 -535.747775878450 6604
0.96446195 1.68888476  69.54773869 -535.749568618738 6605
0.96446195 1.68888476  70.25125628 -535.751315587941 6606
0.96446195 1.68888476  70.95477387 -535.753017472736 6607
0.96446195 1.68888476  71.65829146 -535.754674895523 6608
0.96446195 1.68888476  72.36180905 -535.756288432705 6609
0.96446195 1.68888476  73.06532663 -535.757858618549 6610
0.96446195 1.68888476  73.76884422 -535.759385948768 6611
0.96446195 1.68888476  74.47236181 -535.760870884310 6612
0.96446195 1.68888476  75.17587940 -535.762313856252 6613
0.96446195 1.68888476  75.87939698 -535.763715268583 6614
0.96446195 1.68888476  76.58291457 -535.765075501138 6615
0.96446195 1.68888476  77.28643216 -535.766394916373 6616
0.96446195 1.68888476  77.98994975 -535.767673855465 6617
0.96446195 1.68888476  78.69346734 -535.768912646877 6618
0.96446195 1.68888476  79.39698492 -535.770111604193 6619
0.96446195 1.68888476  80.10050251 -535.771271031469 6620
0.96446195 1.68888476  80.80402010 -535.772391223955 6621
0.96446195 1.68888476  81.50753769 -535.773472467622 6622
0.96446195 1.68888476  82.21105528 -535.774515043185 6623
0.96446195 1.68888476  82.91457286 -535.775519225750 6624
0.96446195 1.68888476  83.61809045 -535.776485286611 6625
0.96446195 1.68888476  84.32160804 -535.777413494669 6626
0.96446195 1.68888476  85.02512563 -535.778304115274 6627
0.96446195 1.68888476  85.72864322 -535.779157413478 6628
0.96446195 1.68888476  86.43216080 -535.779973652156 6629
0.96446195 1.68888476  87.13567839 -535.780753094897 6630
0.96446195 1.68888476  87.83919598 -535.781496004429 6631
0.96446195 1.68888476  88.54271357 -535.782202643754 6632
0.96446195 1.68888476  89.24623116 -535.782873276966 6633
0.96446195 1.68888476  89.94974874 -535.783508168689 6634
0.96446195 1.68888476  90.65326633 -535.784107584547 6635
0.96446195 1.68888476  91.35678392 -535.784671791545 6636
0.96446195 1.68888476  92.06030151 -535.785201057562 6637
0.96446195 1.68888476  92.76381910 -535.785695652888 6638
0.96446195 1.68888476  93.46733668 -535.786155848261 6639
0.96446195 1.68888476  94.17085427 -535.786581916677 6640
0.96446195 1.68888476  94.87437186 -535.786974131963 6641
0.96446195 1.68888476  95.57788945 -535.787332770802 6642
0.96446195 1.68888476  96.28140704 -535.787658110511 6643
0.96446195 1.68888476  96.98492462 -535.787950430399 6644
0.96446195 1.68888476  97.68844221 -535.788210011542 6645
0.96446195 1.68888476  98.39195980 -535.788437136348 6646
0.96446195 1.68888476  99.09547739 -535.788632088994 6647
0.96446195 1.68888476  99.79899497 -535.788795155197 6648
0.96446195 1.68888476 100.50251256 -535.788926622926 6649
0.96446195 1.68888476 101.20603015 -535.789026780720 6650
0.96446195 1.68888476 101.90954774 -535.789095918987 6651
0.96446195 1.68888476 102.61306533 -535.789134329927 6652
0.96446195 1.68888476 103.31658291 -535.789142307043 6653
0.96446195 1.68888476 104.02010050 -535.789120145122 6654
0.96446195 1.68888476 104.72361809 -535.789068140837 6655
0.96446195 1.68888476 105.42713568 -535.788986591973 6656
0.96446195 1.68888476 106.13065327 -535.788875797919 6657
0.96446195 1.68888476 106.83417085 -535.788736059784 6658
0.96446195 1.68888476 107.53768844 -535.788567679010 6659
0.96446195 1.68888476 108.24120603 -535.788370960295 6660
0.96446195 1.68888476 108.94472362 -535.788146208521 6661
0.96446195 1.68888476 109.64824121 -535.787893730632 6662
0.96446195 1.68888476 110.35175879 -535.787613834797 6663
0.96446195 1.68888476 111.05527638 -535.787306831623 6664
0.96446195 1.68888476 111.75879397 -535.786973032194 6665
0.96446195 1.68888476 112.46231156 -535.786612750255 6666
0.96446195 1.68888476 113.16582915 -535.786226301379 6667
0.96446195 1.68888476 113.86934673 -535.785814002839 6668
0.96446195 1.68888476 114.57286432 -535.785376173964 6669
0.96446195 1.68888476 115.27638191 -535.784913136178 6670
0.96446195 1.68888476 115.97989950 -535.784425212925 6671
0.96446195 1.68888476 116.68341709 -535.783912730465 6672
0.96446195 1.68888476 117.38693467 -535.783376017663 6673
0.96446195 1.68888476 118.09045226 -535.782815404759 6674
0.96446195 1.68888476 118.79396985 -535.782231227208 6675
0.96446195 1.68888476 119.49748744 -535.781623821438 6676
0.96446195 1.68888476 120.20100503 -535.780993527628 6677
0.96446195 1.68888476 120.90452261 -535.780340689148 6678
0.96446195 1.68888476 121.60804020 -535.779665653296 6679
0.96446195 1.68888476 122.31155779 -535.778968770832 6680
0.96446195 1.68888476 123.01507538 -535.778250395846 6681
0.96446195 1.68888476 123.71859296 -535.777510887897 6682
0.96446195 1.68888476 124.42211055 -535.776750609480 6683
0.96446195 1.68888476 125.12562814 -535.775969928732 6684
0.96446195 1.68888476 125.82914573 -535.775169218197 6685
0.96446195 1.68888476 126.53266332 -535.774348854972 6686
0.96446195 1.68888476 127.23618090 -535.773509222608 6687
0.96446195 1.68888476 127.93969849 -535.772650709373 6688
0.96446195 1.68888476 128.64321608 -535.771773709646 6689
0.96446195 1.68888476 129.34673367 -535.770878623335 6690
0.96446195 1.68888476 130.05025126 -535.769965857490 6691
0.96446195 1.68888476 130.75376884 -535.769035825585 6692
0.96446195 1.68888476 131.45728643 -535.768088948123 6693
0.96446195 1.68888476 132.16080402 -535.767125652297 6694
0.96446195 1.68888476 132.86432161 -535.766146373661 6695
0.96446195 1.68888476 133.56783920 -535.765151554836 6696
0.96446195 1.68888476 134.27135678 -535.764141647316 6697
0.96446195 1.68888476 134.97487437 -535.763117110560 6698
0.96446195 1.68888476 135.67839196 -535.762078413066 6699
0.96446195 1.68888476 136.38190955 -535.761026032490 6700
0.96446195 1.68888476 137.08542714 -535.759960456152 6701
0.96446195 1.68888476 137.78894472 -535.758882180225 6702
0.96446195 1.68888476 138.49246231 -535.757791712913 6703
0.96446195 1.68888476 139.19597990 -535.756689570723 6704
0.96446195 1.68888476 139.89949749 -535.755576282488 6705
0.96446195 1.68888476 140.60301508 -535.754452387749 6706
0.96446195 1.68888476 141.30653266 -535.753318437268 6707
0.96446195 1.68888476 142.01005025 -535.752174993579 6708
0.96446195 1.68888476 142.71356784 -535.751022631978 6709
0.96446195 1.68888476 143.41708543 -535.749861939295 6710
0.96446195 1.68888476 144.12060302 -535.748693515535 6711
0.96446195 1.68888476 144.82412060 -535.747517973968 6712
0.96446195 1.68888476 145.52763819 -535.746335940865 6713
0.96446195 1.68888476 146.23115578 -535.745148056975 6714
0.96446195 1.68888476 146.93467337 -535.743954976090 6715
0.96446195 1.68888476 147.63819095 -535.742757367780 6716
0.96446195 1.68888476 148.34170854 -535.741555916552 6717
0.96446195 1.68888476 149.04522613 -535.740351322879 6718
0.96446195 1.68888476 149.74874372 -535.739144304025 6719
0.96446195 1.68888476 150.45226131 -535.737935596615 6720
0.96446195 1.68888476 151.15577889 -535.736725955736 6721
0.96446195 1.68888476 151.85929648 -535.735516159421 6722
0.96446195 1.68888476 152.56281407 -535.734307011039 6723
0.96446195 1.68888476 153.26633166 -535.733099341910 6724
0.96446195 1.68888476 153.96984925 -535.731894017635 6725
0.96446195 1.68888476 154.67336683 -535.730691942505 6726
0.96446195 1.68888476 155.37688442 -535.729494068020 6727
0.96446195 1.68888476 156.08040201 -535.728301401698 6728
0.96446195 1.68888476 156.78391960 -535.727115016518 6729
0.96446195 1.68888476 157.48743719 -535.725936064541 6730
0.96446195 1.68888476 158.19095477 -535.724765787427 6731
0.96446195 1.68888476 158.89447236 -535.723605531200 6732
0.96446195 1.68888476 159.59798995 -535.722456756608 6733
0.96446195 1.68888476 160.30150754 -535.721321049583 6734
0.96446195 1.68888476 161.00502513 -535.720200125896 6735
0.96446195 1.68888476 161.70854271 -535.719095831216 6736
0.96446195 1.68888476 162.41206030 -535.718010132186 6737
0.96446195 1.68888476 163.11557789 -535.716945102657 6738
0.96446195 1.68888476 163.81909548 -535.715902898882 6739
0.96446195 1.68888476 164.52261307 -535.714885733878 6740
0.96446195 1.68888476 165.22613065 -535.713895844032 6741
0.96446195 1.68888476 165.92964824 -535.712935458630 6742
0.96446195 1.68888476 166.63316583 -535.712006772198 6743
0.96446195 1.68888476 167.33668342 -535.711111920061 6744
0.96446195 1.68888476 168.04020101 -535.710252960510 6745
0.96446195 1.68888476 168.74371859 -535.709431862825 6746
0.96446195 1.68888476 169.44723618 -535.708650505118 6747
0.96446195 1.68888476 170.15075377 -535.707910666567 6748
0.96446195 1.68888476 170.85427136 -535.707214030475 6749
0.96446195 1.68888476 171.55778894 -535.706562183855 6750
0.96446195 1.68888476 172.26130653 -535.705956617488 6751
0.96446195 1.68888476 172.96482412 -535.705398728580 6752
0.96446195 1.68888476 173.66834171 -535.704889815844 6753
0.96446195 1.68888476 174.37185930 -535.704431078469 6754
0.96446195 1.68888476 175.07537688 -535.704023611447 6755
0.96446195 1.68888476 175.77889447 -535.703668400684 6756
0.96446195 1.68888476 176.48241206 -535.703366316644 6757
0.96446195 1.68888476 177.18592965 -535.703118109309 6758
0.96446195 1.68888476 177.88944724 -535.702924402084 6759
0.96446195 1.68888476 178.59296482 -535.702785684768 6760
0.96446195 1.68888476 179.29648241 -535.702702312017 6761
end