structural
morse    2
rOHe    0   0   0    1          0.964007362694
rOCle   0   0   0    1          1.691906551692
alphae  0   0   0    1          102.690848494750
am1     0   0   0    1          1.40000000
am2     0   0   0    1          1.00000000
end

linear
f    0   0   0    1      0.000911168500
f    0   0   2    1      22288.509948202955
f    0   0   3    1      700.277343183962
f    0   0   4    1      6721.878255130540
f    0   0   5    1      -569.447277881882
f    0   0   6    1      600.911172105526
f    0   0   7    1      -1708.928494821077
f    0   0   8    1      9851.001620407666
f    0   2   0    1      98551.874156188904
f    0   3   0    1      -84725.529902267153
f    0   4   0    1      16813.133670432275
f    0   5   0    1      -32078.236505138484
f    0   6   0    1      1850.894167219571
f    0   7   0    1      32384.551619927948
f    0   8   0    1      -59677.150927748080
f    2   0   0    1      38322.280193315775
f    3   0   0    1      -548.324220580593
f    4   0   0    1      2636.767124526421
f    5   0   0    1      715.411882610837
f    6   0   0    1      2319.694488190986
f    7   0   0    1      859.143375863115
f    8   0   0    1      -2555.888764978837
f    0   1   1    1      -25413.719737127893
f    0   1   2    1      -23651.220462377212
f    0   1   3    1      -12213.873963613012
f    0   1   4    1      1650.730814533967
f    0   1   5    1      719.787445461957
f    0   1   6    1      5156.716641092506
f    0   1   7    1      -33203.157062404855
f    0   2   1    1      28800.939841189473
f    0   2   2    1      -5953.866264149435
f    0   2   3    1      1222.466304741399
f    0   2   4    1      -10431.107152709656
f    0   2   5    1      -5875.388051296121
f    0   2   6    1      21518.943655745446
f    0   3   1    1      17092.784433698580
f    0   3   2    1      -11880.841451125249
f    0   3   3    1      26335.111969291327
f    0   3   4    1      -20448.002046305719
f    0   3   5    1      63877.809819888520
f    0   4   1    1      5763.667980880404
f    0   4   2    1      -11721.609635489069
f    0   4   3    1      21099.534090335033
f    0   4   4    1      -103650.869086743027
f    0   5   1    1      -8688.689530053896
f    0   5   2    1      30038.061917698600
f    0   5   3    1      31632.532910963386
f    0   6   1    1      -35609.656544944017
f    0   6   2    1      -11318.915165828075
f    0   7   1    1      5282.213700195285
f    1   0   1    1      -950.376212173879
f    1   0   2    1      -1844.322767355771
f    1   0   3    1      -3401.353967996391
f    1   0   4    1      -3818.791479458774
f    1   0   5    1      -6815.249478238566
f    1   0   6    1      836.921871645957
f    1   0   7    1      -680.309221314573
f    1   1   0    1      -2865.239786169395
f    1   2   0    1      -3875.985357252687
f    1   3   0    1      6504.706379041678
f    1   4   0    1      -6923.320562375562
f    1   5   0    1      30149.956367188741
f    1   6   0    1      47196.059158884302
f    1   7   0    1      -151584.463378245302
f    2   0   1    1      -7.781976368358
f    2   0   2    1      -2724.605721291153
f    2   0   3    1      -1864.455396101573
f    2   0   4    1      -425.322241310320
f    2   0   5    1      -13809.560406772423
f    2   0   6    1      -13965.916445152938
f    2   1   0    1      1103.751038922699
f    2   2   0    1      -5040.832839388981
f    2   3   0    1      2697.080862846112
f    2   4   0    1      7658.073203894105
f    2   5   0    1      22909.972520259529
f    2   6   0    1      -61387.641016553127
f    3   0   1    1      1270.860160008786
f    3   0   2    1      -1488.900018961723
f    3   0   3    1      444.201368142150
f    3   0   4    1      -5548.913243173318
f    3   0   5    1      -14993.669619230714
f    3   1   0    1      776.964858048665
f    3   2   0    1      -8217.474113428849
f    3   3   0    1      26514.674548329283
f    3   4   0    1      30480.687515016863
f    3   5   0    1      -119856.110292531259
f    4   0   1    1      1141.400959198083
f    4   0   2    1      1582.597375979306
f    4   0   3    1      1449.269193406374
f    4   0   4    1      -7315.806297934211
f    4   1   0    1      1092.819320256023
f    4   2   0    1      1084.841955780454
f    4   3   0    1      10250.997293106788
f    4   4   0    1      -35998.771314848636
f    5   0   1    1      -381.982164520793
f    5   0   2    1      2032.029493604071
f    5   0   3    1      9620.975421249281
f    5   1   0    1      5304.538430078624
f    5   2   0    1      2622.303440892159
f    5   3   0    1      -41605.787597488983
f    6   0   1    1      2360.646301558758
f    6   0   2    1      -3012.359971401718
f    6   1   0    1      5914.087771730588
f    6   2   0    1      -19362.680578108888
f    7   0   1    1      3102.704981832593
f    7   1   0    1      738.996571107282
f    1   1   1    1      4583.164365620679
f    1   1   2    1      344.976504910939
f    1   1   3    1      11440.066061465710
f    1   1   4    1      22043.505307251322
f    1   1   5    1      26475.668755581963
f    1   1   6    1      -11248.996704341118
f    1   2   1    1      -666.108267778913
f    1   2   2    1      -5519.127108799565
f    1   2   3    1      -16984.154291777835
f    1   2   4    1      -33133.389761715502
f    1   2   5    1      6013.088014248570
f    1   3   1    1      -8675.850586401373
f    1   3   2    1      48892.150541600160
f    1   3   3    1      14733.998205271779
f    1   3   4    1      -96200.622870991487
f    1   4   1    1      -20615.055601062792
f    1   4   2    1      103501.867326736960
f    1   4   3    1      69347.725851729556
f    1   5   1    1      -3248.217140979258
f    1   5   2    1      -411714.723317363299
f    1   6   1    1      123512.065874738604
f    2   1   1    1      2232.750182336206
f    2   1   2    1      -1162.775097539749
f    2   1   3    1      -1455.374554747106
f    2   1   4    1      14463.747304950786
f    2   1   5    1      61907.586528319865
f    2   2   1    1      7209.619126274494
f    2   2   2    1      42268.833270471558
f    2   2   3    1      -34126.530445136523
f    2   2   4    1      -174446.703809328901
f    2   3   1    1      -54401.065830320265
f    2   3   2    1      -31920.269759345269
f    2   3   3    1      434987.265094117960
f    2   4   1    1      -49744.089239392866
f    2   4   2    1      -316014.146124854044
f    2   5   1    1      299415.914150796016
f    3   1   1    1      -3131.086752192165
f    3   1   2    1      5131.506271822544
f    3   1   3    1      8405.466905619702
f    3   1   4    1      -6623.687325059691
f    3   2   1    1      -4692.333146375016
f    3   2   2    1      -14894.479139285677
f    3   2   3    1      -86927.877654832235
f    3   3   1    1      5509.325665168031
f    3   3   2    1      -149334.696004977712
f    3   4   1    1      61010.896152098685
f    4   1   1    1      -4682.984994698207
f    4   1   2    1      -3569.759187187925
f    4   1   3    1      -4765.275543704805
f    4   2   1    1      -13774.143024856672
f    4   2   2    1      -73155.612376721547
f    4   3   1    1      97268.508677440928
f    5   1   1    1      1196.606638730992
f    5   1   2    1      -29205.694636408422
f    5   2   1    1      34855.728015457949
f    6   1   1    1      4123.975932866582
end

grid
0.96446195000000 1.68969849000000 103.00000000000000    -0.27722956240200
0.96446195000000 1.68888476000000 102.61306533000000    -0.27578943967800
0.96446195000000 1.68888476000000 103.00000000000000     0.00000000000000
0.96446195000000 1.69388476000000 103.00000000000000     0.32370078563700
0.96446195000000 1.69655907000000 102.38050207000001     0.92992626130600
0.96105346000000 1.69171888000000 103.00000000000000     1.30162860453100
0.96446195000000 1.69597990000000 103.00000000000000     1.66398584842700
0.96446195000000 1.68888476000000 103.31658290999999     1.87426519393900
0.96733668000000 1.68888476000000 103.00000000000000     2.26340031623800
0.95979899000000 1.68888476000000 103.00000000000000     3.26669827103600
0.96446195000000 1.68888476000000 102.00000000000000     3.44189037382600
0.95946195000000 1.68888476000000 103.00000000000000     4.03823517262900
0.96446195000000 1.68888476000000 101.90954773999999     4.20520861446900
0.96446195000000 1.68388476000000 103.00000000000000     4.54685941338500
0.96446195000000 1.68341709000000 103.00000000000000     5.22615914046800
0.96446195000000 1.68888476000000 104.02010050000000     9.96157042682200
0.97136730000000 1.69167377000000 103.00000000000000    10.37152905762200
0.96446195000000 1.70226131000000 103.00000000000000    10.98350538313400
0.96540094000000 1.68045628000000 103.00000000000000    11.40757310390500
0.96446195000000 1.70388476000000 103.00000000000000    14.10412797331800
0.96446195000000 1.67888476000000 103.00000000000000    15.04000873863700
0.96446195000000 1.68888476000000 101.20603015000000    15.17989766597700
0.96446195000000 1.68574450000000 104.37583481000000    17.04008616507100
0.95927528000000 1.68888476000000 104.23313401999999    17.89142215251900
0.97333400000000 1.69541002000000 103.00000000000000    18.37978379428400
0.95452387000000 1.69343257000000 103.00000000000000    18.65618199110000
0.96446195000000 1.67713568000000 103.00000000000000    18.69781029224400
0.96446195000000 1.68888476000000 101.00000000000000    19.63308499753500
0.97487437000000 1.68888476000000 103.00000000000000    23.53067459166000
0.96446195000000 1.68888476000000 104.72361809000000    24.51492784917400
0.96446195000000 1.69935512000000 100.62340731000000    24.54622164368600
0.96446195000000 1.70854271000000 103.00000000000000    28.06248421967000
0.95226131000000 1.68888476000000 103.00000000000000    28.29102799296400
0.96446195000000 1.67452329000000 102.62611898999999    28.68774802982800
0.96446195000000 1.67388476000000 103.00000000000000    28.81312310695600
0.95413055000000 1.70245262000000 102.73968705000000    30.91619220376000
0.96446195000000 1.68888476000000 105.00000000000000    31.98167562484700
0.96446195000000 1.68888476000000 100.50251256000000    32.71573816239800
0.96446195000000 1.68888476000000 100.50000000000000    32.79042710363900
0.96961179000000 1.68888476000000 100.70626586000000    32.87102973461200
0.96446195000000 1.69102895000000 100.37362833000000    33.70311436057100
0.97772624000000 1.68831483000000 103.00000000000000    37.50885219872000
0.95058570000000 1.69383403000000 103.00000000000000    37.95846697688100
0.97723251000000 1.69887113000000 103.00000000000000    38.44545945525200
0.96491781000000 1.67135836000000 103.00000000000000    39.07215939462200
0.97655834000000 1.70238104000000 103.00000000000000    40.29792539775400
0.96446195000000 1.67085427000000 103.00000000000000    41.62401357293100
0.96562428000000 1.68888476000000 100.23154051000000    41.73712268471700
0.96446195000000 1.67137754000000 102.46500521000000    42.42700707912400
0.96446195000000 1.68888476000000 105.42713568000001    45.35059818625500
0.96446195000000 1.71388476000000 103.00000000000000    47.64056691527400
0.96446195000000 1.66888476000000 103.00000000000000    48.82100360095500
0.96446195000000 1.68888476000000 100.00000000000000    49.29653793573400
0.96446195000000 1.71482412000000 103.00000000000000    51.58515854179900
0.96446195000000 1.68955214000000 105.61393407000000    52.37858314812200
0.96446195000000 1.69539628000000 105.42988367000000    53.13625550270100
0.97543044000000 1.70528144000000 103.81278983999999    55.75521773099900
0.97560309000000 1.67410683000000 103.02305509000000    55.85363478958600
0.96446195000000 1.68888476000000  99.79899497000000    56.88143357634500
0.95460688000000 1.68888476000000 105.33803371000000    58.62038218975100
0.96446195000000 1.67555604000000 100.87645427000000    59.57594181597200
0.95133151000000 1.68888476000000 100.76483933000000    59.63304515183000
0.94922495000000 1.68888476000000 104.56931535000000    65.28368975222099
0.98241206000000 1.68888476000000 103.00000000000000    66.07612712681301
0.95672846000000 1.68888476000000  99.85713991000000    66.27116915583601
0.96446195000000 1.68888476000000 106.13065327000000    70.44382928311801
0.96446195000000 1.66457286000000 103.00000000000000    72.30732282996200
0.97797367000000 1.67278413000000 103.00000000000000    72.75848549604400
0.96446195000000 1.66388476000000 103.00000000000000    74.27546039223699
0.94739416000000 1.67691111000000 103.00000000000000    75.31216011941400
0.96089384000000 1.70206730000000 105.59650635000000    76.87087792158100
0.96446195000000 1.69863757000000  99.06940650999999    77.68344171345200
0.94472362000000 1.68888476000000 103.00000000000000    78.09132009744600
0.98428260000000 1.68888476000000 102.42764905999999    79.68195693194900
0.96446195000000 1.72110553000000 103.00000000000000    81.72784255445001
0.96446195000000 1.71344974000000  99.23533120000000    86.62914621829999
0.94382710000000 1.68888476000000 103.26907181000000    86.87111671268900
0.96446195000000 1.68888476000000  99.09547739000000    87.74582307040700
0.98579237000000 1.68914685000000 103.00000000000000    91.62752215564301
0.98306362000000 1.70953101000000 102.41214758000000    94.32442000508300
0.95046641000000 1.71563524000000 103.00000000000000    95.73734474182100
0.98652520000000 1.68888476000000 103.23420719000001    99.14367170631900
0.96446195000000 1.72108496000000  99.58487088000000    99.39380387961900
0.94237899000000 1.68888476000000 102.47775987000000   100.16631102562000
0.96446195000000 1.72444112000000 103.20606282000000   104.18432359397400
0.96446195000000 1.68888476000000 106.83417085000001   104.68669953942300
0.96446195000000 1.66742103000000 106.26100245000001   105.32982057333000
0.94814726000000 1.66737313000000 103.00000000000000   105.34751850366600
0.96446195000000 1.65888476000000 103.00000000000000   105.70725062489500
0.96446195000000 1.65829146000000 103.00000000000000   109.39306756854100
0.97013095000000 1.65946551000000 103.00000000000000   110.16288861632300
0.96446195000000 1.69008639000000 106.96604373000000   112.88116329908399
0.96446195000000 1.68888476000000 107.00000000000000   113.72277903556800
0.95912798000000 1.65829881000000 103.00000000000000   114.01393693685500
0.97587038000000 1.72287438000000 103.00000000000000   116.55180291831500
0.96446195000000 1.72738693000000 103.00000000000000   118.24991995096200
0.94389381000000 1.67168745000000 103.55385572000000   118.73372073471501
0.96446195000000 1.73027836000000 101.86300788000000   122.91377249360100
0.95313926000000 1.72064964000000 103.90707915000000   125.13559266924899
0.96483168000000 1.68860969000000 107.20725858000000   125.37868466973300
0.96446195000000 1.72355825000000  99.02784350000000   125.39024157822099
0.96446195000000 1.68888476000000  98.39195980000000   127.03476145863500
0.98994975000000 1.68888476000000 103.00000000000000   128.78433920443101
0.95051806000000 1.68888476000000 106.68003688000000   132.47842334210901
0.96446195000000 1.66332821000000 106.58684237000000   133.55264954268901
0.98902819000000 1.70560176000000 103.00000000000000   136.23767845332600
0.97889994000000 1.66125905000000 103.00000000000000   136.62473233044099
0.96446195000000 1.68888476000000 107.53768844000000   142.13826227188099
0.96446195000000 1.65388476000000 103.00000000000000   144.40383970737500
0.95381277000000 1.67805434000000 107.31277718000000   147.71182715892800
0.97314078000000 1.66339734000000 106.48890049000001   147.74798028171099
0.96446195000000 1.71774280000000 105.73850634000000   149.30645258724701
0.96727704000000 1.68888476000000 107.60811506000000   149.30645258724701
0.96446195000000 1.68888476000000  98.00000000000000   151.19687101244901
0.96446195000000 1.68888476000000  98.00000000000000   151.51996913552301
0.94989347000000 1.72625264000000 102.74867184999999   152.42815060913600
0.96446195000000 1.68853397000000 107.72342388000000   154.18951961398099
0.93718593000000 1.68888476000000 103.00000000000000   155.22513701021700
0.97949607000000 1.68888476000000 106.88161469000001   156.63021166622599
0.96792308000000 1.73298976000000 103.00000000000000   157.45556025207000
0.98730720000000 1.71620594000000 103.00000000000000   157.85933324694599
0.96446195000000 1.73366834000000 103.00000000000000   158.02897207438900
0.96446195000000 1.65201005000000 103.00000000000000   160.91629314422599
0.97606009000000 1.73055422000000 103.00000000000000   163.78157247602900
0.99230170000000 1.68074613000000 103.00000000000000   164.36855153739501
0.96446195000000 1.68888476000000  97.68844221000001   169.84840634465201
0.96446195000000 1.68915089000000  97.67638750000000   169.90491309762001
0.96446195000000 1.65013448000000 103.08912827000000   172.40095359086999
0.99446195000000 1.68888476000000 103.00000000000000   175.52785989642101
0.99132333000000 1.71246602000000 103.00000000000000   178.87697856128199
0.93534751000000 1.69079245000000 102.17267705000000   179.87481598555999
0.97672991000000 1.68888476000000 107.58637610000000   180.97640591859800
0.95774332000000 1.73792412000000 100.76897627000000   183.22237291932100
0.96446195000000 1.73800509000000 102.68574638000000   184.23798532783999
0.97101797000000 1.72364346000000  97.79028674000000   184.80104064941401
0.97214643000000 1.66643002000000  99.43810123000000   185.86871697008601
0.94951197000000 1.67864477000000 107.62871470000000   185.90045197308100
0.95482203000000 1.68888476000000  97.76307978000000   186.00226731598400
0.97719294000000 1.66138776000000 106.75383811000000   187.43110242486000
0.98563708000000 1.72749996000000 101.79689368000000   189.40784077346299
0.96446195000000 1.68888476000000 108.24120603000000   189.63396163284801
0.96446195000000 1.74031810000000 100.24843084000000   193.71204192936401
0.96084665000000 1.64727343000000 104.75343795000001   195.37408153712701
0.93965624000000 1.71832898000000 103.00000000000000   199.41889052093001
0.96446195000000 1.73888476000000 103.00000000000000   200.85639071464499
0.96446195000000 1.73805227000000  99.08558058000000   201.66710330545899
0.99724084000000 1.68888476000000 102.71912926000000   206.92269745469099
0.96446195000000 1.73994975000000 103.00000000000000   209.50030662119400
0.93375333000000 1.68888476000000 104.27536889000000   211.09807500243201
0.96281612000000 1.73415758000000 104.61468710000000   214.77007323503500
0.96446195000000 1.64572864000000 103.00000000000000   214.94754768908001
0.93302760000000 1.68888476000000 104.19069785000001   217.94567301869401
0.96446195000000 1.66628105000000  98.66450362000000   219.54347857832900
0.98941726000000 1.72521351000000 103.00000000000000   220.72504147887199
0.93723189000000 1.68888476000000  99.64225372000000   221.22528226673600
0.95779686000000 1.65619349000000 107.72022499000001   221.45543254911900
0.96446195000000 1.68888476000000  96.98492462000000   222.25631958246200
0.99509817000000 1.68888476000000 100.17259623000000   222.55710390210200
0.96446195000000 1.69814739000000  96.62870433000001   226.54706321656701
0.96137519000000 1.74037363000000 103.68781593000000   234.16870290041001
0.95195352000000 1.69098379000000 108.42905343000000   234.41542486846399
0.99780770000000 1.68888476000000 104.49919764000001   235.05076697468800
0.99946195000000 1.68888476000000 103.00000000000000   235.21689675748300
0.96941089000000 1.73873321000000 104.15459803000000   236.95461249351499
0.96446195000000 1.68888476000000 108.94472362000000   238.00604496896301
0.96446195000000 1.64281739000000 105.08095489999999   239.12493763864001
0.93393520000000 1.68888476000000 105.46329382000000   239.55379699170601
0.99209886000000 1.72401822000000 103.00000000000000   240.29256625473499
0.96446195000000 1.74388476000000 103.00000000000000   241.31298261880900
0.93791510000000 1.72263815000000 103.00000000000000   242.54068218171599
0.95239675000000 1.65786346000000  99.86885015999999   242.85109083354499
0.96446195000000 1.66598753000000 108.91407896000000   247.18135452270499
0.96850555000000 1.64283311000000 103.00000000000000   250.08378967642801
1.00045781000000 1.70214521000000 103.00000000000000   255.79451039433499
0.92964824000000 1.68888476000000 103.00000000000000   257.51521071791598
0.95769560000000 1.64217818000000 103.00000000000000   257.99251171946503
0.96446195000000 1.74623116000000 103.00000000000000   258.47546494007099
0.96446195000000 1.65502998000000  99.50586244000000   260.92131629586203
0.92946195000000 1.68888476000000 103.00000000000000   263.77978214621498
0.96446195000000 1.72899713000000 106.42144632000000   264.56483481824398
0.98858299000000 1.73572036000000 101.59840756000000   265.05521972477402
0.96446195000000 1.72556489000000  96.42881084000000   265.10128541290800
0.96446195000000 1.74970259000000 100.77724578999999   266.29711218178301
0.96446195000000 1.70157578000000  96.07862899000000   267.43489374220400
0.96446195000000 1.70278745000000 108.81795525000000   272.76409821212297
0.96922488000000 1.68384635000000 109.36959232000000   273.23399879038300
0.96446195000000 1.74773622000000 102.89769501000001   275.04112175107002
0.96446195000000 1.68888476000000  96.28140704000000   279.57922784984100
0.96446195000000 1.63944724000000 103.00000000000000   282.19453564286198
0.99736405000000 1.68888476000000  99.25041417000000   284.52950327098398
0.96446195000000 1.74888476000000 103.00000000000000   287.39502383768598
1.00139031000000 1.68888476000000 100.57532540000000   288.36874747276300
0.97272711000000 1.75107352000000 100.79554950000001   288.70355707406998
0.96446195000000 1.63888476000000 103.00000000000000   290.57202835381003
0.99464972000000 1.65854487000000 103.00000000000000   291.21388325095199
0.96446195000000 1.68888476000000 109.64824120999999   295.71028229594202
1.00317187000000 1.68888476000000 104.03323208000000   296.98850162327301
0.97820971000000 1.65216536000000 107.98330228000000   298.32581800222403
1.00446195000000 1.68888476000000 103.00000000000000   302.41623224317999
0.96446195000000 1.68253486000000  96.30706398000000   304.50944292545302
0.94260630000000 1.68888476000000  97.23211394000000   305.14812140166799
0.96446195000000 1.70750182000000  95.52124037999999   309.53874415159203
1.00168877000000 1.68888476000000 105.41423675999999   309.63051648438000
0.94369709000000 1.68888476000000  97.04313252000000   311.61488360166499
0.95219717000000 1.75061435000000  99.83669123000000   316.24744154512899
1.00463704000000 1.68062023000000 103.00000000000000   316.79505844414200
0.96446195000000 1.63797420000000 102.32357664000000   317.29745958745502
0.93443161000000 1.72983110000000 100.96428423000000   320.71524290740501
0.96446195000000 1.75251256000000 103.00000000000000   321.57989743351902
0.97362383000000 1.68888476000000 109.71235313000000   322.08831907808798
0.98223879000000 1.68888476000000 109.13380589000000   322.53949344158201
1.00142561000000 1.68888476000000 105.79198301000000   322.65623879432701
0.95639631000000 1.68987233000000  95.93719148000000   323.53840573131998
0.99285205000000 1.68888476000000 107.88389634000001   325.86141157150303
0.92593426000000 1.68462993000000 103.76583653000000   326.42600783705700
0.95155555000000 1.68888476000000  96.16238645999999   327.56095774471800
0.95259126000000 1.74772642000000  98.15535061000000   330.18371503055101
0.96960702000000 1.68888476000000  95.77772521999999   331.08247289061501
1.00270328000000 1.67536309000000 105.17065852000000   332.58510287105997
0.96446195000000 1.75388476000000 103.00000000000000   337.30141067504900
0.93651102000000 1.71489603000000 106.47690867999999   338.28778135776503
0.98951387000000 1.64823057000000 102.17952739000000   339.18088930845300
1.00676816000000 1.68888476000000 103.66840995000000   341.95692364871502
0.96446195000000 1.74897503000000  97.15472969000000   344.97983255982399
0.96446195000000 1.68888476000000  95.57788945000000   346.26871596276800
0.92446195000000 1.68888476000000 103.00000000000000   346.98869810998400
0.96446195000000 1.71441264000000 109.01876489000000   348.70598600804800
0.96446195000000 1.63252495000000 104.67247046999999   350.15912385284901
0.96446195000000 1.63388476000000 103.00000000000000   351.38171638548403
0.96446195000000 1.68888476000000  95.50000000000000   352.65703913569502
0.94214417000000 1.73778784000000  97.83217153000000   357.25886374712002
0.96446195000000 1.68888476000000 110.35175879000001   359.42843696475001
0.96446195000000 1.63316583000000 103.00000000000000   359.53340283036198
0.97637983000000 1.68888476000000  95.66154272000000   362.82307940721500
0.98179619000000 1.70625554000000 109.03119289999999   368.74079513549799
0.93599096000000 1.68888476000000 108.47358590000000   369.69866964221001
0.96446195000000 1.72277198000000 108.61108022000001   373.31146454811102
0.96446195000000 1.68888476000000 110.50000000000000   374.42255443334602
0.93579461000000 1.73800135000000 103.00000000000000   375.89619970321701
0.96446195000000 1.76055341000000 101.77478691000000   377.34167554974601
1.00946195000000 1.68888476000000 103.00000000000000   378.54989027977001
0.97833458000000 1.74673087000000 105.11214982000000   379.89985533058598
0.93113910000000 1.65264600000000 103.00000000000000   381.00627401471098
0.96446195000000 1.64224324000000 109.01634364000000   382.71192055940600
0.93332518000000 1.66164668000000 107.71627363000000   382.84064516425099
0.94662797000000 1.68888476000000  95.90875892000000   383.74334554374201
0.96446195000000 1.75879397000000 103.00000000000000   388.56618873775000
0.96446195000000 1.75888476000000 103.00000000000000   389.54446460306599
0.96446195000000 1.70503582000000 110.05531596000000   389.99542561173399
0.92211055000000 1.68888476000000 103.00000000000000   390.97801491618202
0.96446195000000 1.72729621000000 108.43133133000001   391.42320252955000
0.95321958000000 1.63482124000000 107.40279049999999   391.47251969575899
0.99965001000000 1.65340057000000 103.00000000000000   394.68338771164400
0.96446195000000 1.69240169000000 110.63783209000000   394.84123903513000
0.92529418000000 1.70273963000000 105.23552118000001   396.00549240410299
0.97351178000000 1.75365194000000  97.05720702000001   396.33763591945200
0.96446195000000 1.63187267000000 102.34918551000000   396.34951101243502
0.92593240000000 1.71922596000000 103.00000000000000   396.90959799289698
0.96728846000000 1.63067546000000 103.00000000000000   398.62182453274698
0.96446195000000 1.63245787000000 102.05290380000000   400.83385793864699
1.01095992000000 1.68888476000000 102.35861448000000   400.91361950337898
0.96446195000000 1.71681598000000  94.55462780000001   401.43002107739397
0.95028017000000 1.68888476000000 110.45128012000001   404.78385925292997
1.00212988000000 1.67711843000000 107.33125487000000   407.52863886952400
0.98966752000000 1.75084367000000  98.98119659000000   408.24712391197698
0.92140432000000 1.68888476000000 102.24265764000000   409.55785745382298
0.93652944000000 1.72948186000000 105.99628740000000   409.95725470781298
0.96446195000000 1.68512231000000 111.00336134000000   412.05908267199999
0.96446195000000 1.62871961000000 103.51542851000001   412.45134761929501
0.92535569000000 1.67887269000000  99.93898819000000   414.18092279136198
0.95379314000000 1.69508207000000  94.92958801000000   414.50875023007399
0.97370533000000 1.75252186000000  96.50008780000000   415.81399922072899
0.99432438000000 1.70621792000000 108.25211097000000   417.49716053903097
0.94911604000000 1.68979777000000  95.35325055000000   418.20195192098601
0.96446195000000 1.68888476000000  94.87437186000000   418.24836105108301
0.96446195000000 1.62888476000000 103.00000000000000   419.21980440616602
1.00891594000000 1.71523452000000 103.54217595999999   424.27928774058802
0.96446195000000 1.72386078000000 109.11337387000000   424.70594939589500
1.01185935000000 1.68888476000000 103.86498014999999   425.30543616414099
0.96446195000000 1.68888476000000 111.05527638000000   426.12198001146299
0.92506121000000 1.65991874000000 103.00000000000000   427.54256618022902
0.99980657000000 1.68331976000000 108.30365288000000   433.30230224132498
0.99317752000000 1.75027150000000 102.35189200000001   435.52380062639702
0.96446195000000 1.67443426000000  95.46230550000000   437.51121306419401
0.95426552000000 1.68888476000000 111.02803358000000   438.12395416200201
0.96446195000000 1.62847345000000 107.19008640000000   441.95990826189501
0.96446195000000 1.76388476000000 103.00000000000000   444.92110256850702
0.91946195000000 1.68888476000000 103.00000000000000   444.99402353167500
1.01246152000000 1.71001512000000 102.54868897999999   447.30813650786899
0.98848447000000 1.72370167000000 108.08409952000000   447.34412293136103
1.00124097000000 1.73349742000000 104.46598118999999   450.65063115954399
0.96446195000000 1.62688442000000 103.00000000000000   451.08584071695799
0.96446195000000 1.76507538000000 103.00000000000000   456.64361971616700
0.97627840000000 1.68888476000000 111.03170369000000   457.38048699498199
1.01446195000000 1.68888476000000 103.00000000000000   458.65980532765400
0.96446195000000 1.62493190000000 104.01424880000000   459.55488531291502
0.99999862000000 1.66384072000000 108.17701155000000   460.49866990745102
0.96446195000000 1.72066809000000 109.79502847000001   460.50012634694599
0.94678790000000 1.66233599000000  96.84728883000000   465.00138671696197
1.01052957000000 1.66573117000000 103.00000000000000   465.29094807803602
0.92127101000000 1.68821597000000  99.92370343000000   466.51297746598698
0.99581087000000 1.75028956000000  98.73617772000000   470.34466028213501
0.92321145000000 1.65730745000000 103.93823377000000   472.67488123476500
0.97278877000000 1.73314306000000 108.64638533999999   476.63080190122099
0.96446195000000 1.72306670000000 109.72556063000000   476.69715355336700
1.00035132000000 1.74429044000000 103.00000000000000   479.02362294495100
0.96446195000000 1.76192782000000  96.53468402000000   479.61252315342398
0.96446195000000 1.77089985000000 100.00156094000000   480.18769444525202
0.96446195000000 1.63902859000000  98.97600729000000   481.42898137867502
0.96446195000000 1.69162122000000  94.16830822000000   485.09274749457802
1.00858823000000 1.73045884000000 103.00000000000000   488.01921278238302
0.96446195000000 1.65196198000000 111.26944549000000   489.58891278505303
0.97488588000000 1.70136825000000 111.01841111000000   491.52699489891501
0.96446195000000 1.69926107000000  93.88017300000000   493.00955465435999
1.01488484000000 1.68373943000000 100.93496222000000   493.76296716928499
0.96446195000000 1.62388476000000 103.00000000000000   495.34396040439600
0.96446195000000 1.68888476000000  94.17085427000001   497.20151594281202
0.96446195000000 1.68888476000000 111.75879397000000   501.26320347189898
0.96446195000000 1.76888476000000 103.00000000000000   503.55061018466898
1.01237150000000 1.66313115000000 103.00000000000000   510.67305441200699
0.97501152000000 1.68888476000000 111.67145175000000   516.01465500891197
0.91715728000000 1.70105476000000 101.30268768000001   516.22940549254395
1.01509368000000 1.67091999000000 103.00000000000000   518.13737665116798
0.92537237000000 1.72808125000000  98.36802199000000   519.51253710687195
0.95733237000000 1.62219204000000 106.99559888000000   520.44929260015499
0.98731151000000 1.63476594000000 100.98122143000001   521.57544521987404
1.01820531000000 1.70087410000000 102.02759777999999   526.65857650339603
0.96446195000000 1.75151986000000 107.22515186000000   528.07881155610096
0.96446195000000 1.77135678000000 103.00000000000000   529.49885144829796
0.93413177000000 1.68888476000000  95.79554147000000   532.31346896290802
1.01636459000000 1.68888476000000 100.20483855000001   533.61913281679199
0.96290568000000 1.77389193000000 101.87772409999999   535.38766020536400
0.96446195000000 1.77523909000000  99.20799784000000   535.93070894479797
0.96446195000000 1.76883576000000 103.94411146000000   536.95677053928398
0.99447775000000 1.74116910000000  95.69164582000001   538.94296711683296
1.00337205000000 1.68888476000000 109.04534774000000   539.16446816921200
0.96446195000000 1.67112579000000  94.81236081999999   540.44510753452801
0.91722772000000 1.71158586000000 103.00000000000000   540.86101114749897
0.96446195000000 1.76156673000000 105.71574683000000   541.24483677744900
0.98721226000000 1.65220620000000 110.57812649000000   544.15231518447399
0.96446195000000 1.77656005000000  99.54433475000000   545.87409654259704
0.93014136000000 1.63857653000000 106.80228031000000   546.08258002996399
0.96446195000000 1.68989521000000 112.17670446000000   548.53083199262596
1.01946195000000 1.68888476000000 103.00000000000000   548.78957062959705
0.96446195000000 1.62060302000000 103.00000000000000   550.67689904570602
0.92930408000000 1.75020489000000 100.36165932000000   551.88431172072899
0.91457286000000 1.68888476000000 103.00000000000000   554.69425916671798
0.96446195000000 1.65651281000000  95.90757142000000   556.24991495907295
0.91446195000000 1.68888476000000 103.00000000000000   557.34113872051205
0.96446195000000 1.77379548000000 102.94780774000000   561.83044484257698
0.96446195000000 1.77388476000000 103.00000000000000   562.15962491929497
0.96446195000000 1.64861409000000 111.87344480000000   562.22427563369297
1.00254234000000 1.64408587000000 107.02606256999999   565.11601138114895
0.96446195000000 1.67925684000000  94.05348046000000   568.05605089664505
0.96911792000000 1.61949176000000 103.00000000000000   571.85456393659103
0.96446195000000 1.64561350000000  96.94627654999999   572.84630887210403
0.96446195000000 1.69561642000000 112.24964407000000   574.76400184631302
0.96446195000000 1.68888476000000 112.46231156000000   578.82010376453400
1.02099043000000 1.68738223000000 103.00000000000000   579.53425872325897
0.96446195000000 1.61888476000000 103.00000000000000   580.44137774407898
0.92791619000000 1.68888476000000 109.70289256000000   580.52038390934501
0.96446195000000 1.76553577000000 105.61458057000000   584.16259929537796
0.91901005000000 1.72716987000000 103.00000000000000   585.09712217748199
0.96446195000000 1.68888476000000  93.46733668000000   586.19401095807598
0.92790283000000 1.68888476000000  96.19176163000000   586.29037345945801
1.00694046000000 1.68888476000000 109.05052532000001   593.27103392779804
0.96723788000000 1.68888476000000 112.56709227000000   595.56458383798599
0.95551938000000 1.77497920000000 103.00000000000000   598.45205254852794
0.96446195000000 1.71174714000000 111.70067383999999   599.38476641476200
0.96446195000000 1.65474845000000  95.67536598000000   602.96615403890598
1.01209057000000 1.64988052000000 103.01542151000000   606.81709432601895
0.96446195000000 1.77763819000000 103.00000000000000   607.40854687988804
1.00390405000000 1.63894062000000 106.29512621000001   610.82734072208405
1.02265994000000 1.68738545000000 103.00000000000000   613.25126796960797
0.96446195000000 1.66415801000000 112.92023195000000   615.50312221050297
1.00630919000000 1.64018890000000 103.00000000000000   616.73906579613697
0.95998075000000 1.75107782000000  93.54594833000000   619.91383682191395
0.95111652000000 1.71685547000000  92.95074691000001   620.91138046979904
0.96446195000000 1.63459538000000  98.03565072000001   624.08013772964500
1.01517594000000 1.73580803000000 103.00000000000000   631.52650479972397
0.97354681000000 1.68888476000000 112.74850528000000   632.62041316926502
0.91731462000000 1.72290660000000 104.54637545999999   634.20200259983505
0.96446195000000 1.61989539000000 109.13684979000000   634.61739550530899
0.93482421000000 1.76334593000000 103.00000000000000   638.99539479613304
0.97320610000000 1.68888476000000 112.79606183999999   639.56008693575905
1.02427979000000 1.69367216000000 103.00000000000000   639.72669827938103
0.96446195000000 1.75629947000000  93.59112258000000   642.17797091603302
0.95425022000000 1.68888476000000 112.85660202000000   642.88004076480900
0.92882897000000 1.73696891000000  95.88660593000000   644.20527455210697
1.02446195000000 1.68888476000000 103.00000000000000   644.78918169438805
0.96446195000000 1.68888476000000  93.00000000000000   645.97527113556896
0.96446195000000 1.78135198000000 102.74494163999999   653.53316624462605
1.02421632000000 1.70043884000000 103.91487227000000   654.16058930754696
0.96446195000000 1.61304655000000 106.85459640000001   655.59561975300301
0.96446195000000 1.61432161000000 103.00000000000000   657.50617811083805
0.99914076000000 1.68888476000000 111.03817666000000   663.17003877461002
0.96446195000000 1.68888476000000 113.16582914999999   663.65080812573399
0.95778928000000 1.78497660000000  99.11308500000000   665.24523104727302
1.00104124000000 1.76191771000000  97.53579963000000   667.40291973948501
0.95373825000000 1.77986304000000 103.00000000000000   667.83766524493706
0.96446195000000 1.61388476000000 103.00000000000000   671.46093915402901
0.98411672000000 1.77600186000000 103.41356831000000   672.16444398462795
1.01889299000000 1.71619926000000  97.80738113000000   673.72438749671005
0.96446195000000 1.61201433000000 103.99679347000000   674.31591024994896
0.96446195000000 1.68888476000000  92.76381910000001   678.45023174583901
0.90946195000000 1.68888476000000 103.00000000000000   681.85343682765995
0.92483566000000 1.63325913000000 103.00000000000000   684.00636132061504
0.95969103000000 1.78293190000000 103.00000000000000   690.86501424014602
0.97222654000000 1.68888476000000 113.26162730000000   692.62630105018604
0.96446195000000 1.78391960000000 103.00000000000000   693.16462695598602
1.00743054000000 1.63521818000000 103.00000000000000   696.51782201230503
1.01241675000000 1.64651132000000 107.08301926000000   697.36761149764095
0.96446195000000 1.75323847000000 108.99452610000000   698.01265341043495
0.96446195000000 1.69280758000000  92.47519653000001   704.28331038355805
0.96446195000000 1.76228692000000 107.78603218000001   705.12688820064102
0.96446195000000 1.76097255000000 108.01690591000001   706.07395032048203
0.98207268000000 1.78531947000000  99.00679882999999   708.55089077353500
0.91294101000000 1.68888476000000 107.13455655000000   708.72420494258404
0.96547318000000 1.68048762000000  92.95427918999999   709.00631096959103
1.02763819000000 1.68888476000000 103.00000000000000   709.17211963236298
0.95053671000000 1.75854926000000 107.95439399999999   712.92464973032497
0.91105455000000 1.71698292000000 103.00000000000000   715.19858579337597
0.96446195000000 1.60949223000000 104.37079153000001   715.73225757479702
0.90851981000000 1.68888476000000 101.73244098000001   716.80599315464497
0.94482568000000 1.64119986000000  96.90542492000000   717.90398974716697
0.94926897000000 1.61163813000000 107.11630153999999   718.70955671369995
0.92222192000000 1.68888476000000 110.20395875000000   722.83501617610500
0.90975965000000 1.66715687000000 104.24029139000000   723.46823097765400
0.96446195000000 1.65878540000000  94.30993108000000   725.83669333159901
1.00452502000000 1.68888476000000 110.96963456000000   729.43033854663395
0.95220466000000 1.77876348000000  95.56424625000000   732.77701501548302
0.96446195000000 1.79189008000000 100.04869604000000   738.78207603096996
1.00090993000000 1.63071103000000 100.85990891000000   739.63396163284801
0.94994987000000 1.65941031000000  94.47138074999999   743.75322155654396
1.02946195000000 1.68888476000000 103.00000000000000   746.39662669599102
0.96446195000000 1.70337148000000  91.83038838000000   747.30399276316200
1.01540801000000 1.74594579000000 104.05679756000001   750.76583127677395
0.90703518000000 1.68888476000000 103.00000000000000   751.66062636673496
0.96446195000000 1.68888476000000 113.86934673000000   754.07960213720798
0.96999938000000 1.61770377000000 110.50484839000001   755.36675356328499
0.95759089000000 1.65000260000000  94.97143969000000   755.63756398856594
0.96446195000000 1.70705381000000  91.67397994000000   758.06331485509895
0.96446195000000 1.60659091000000 105.99673713999999   759.49212038516998
0.96446195000000 1.60888476000000 103.00000000000000   759.86102578043904
1.01138829000000 1.64227824000000 100.35591451000001   762.72838166356098
0.96492083000000 1.73376559000000  91.53284771000000   768.23457407951400
1.02534639000000 1.66092314000000 102.46360464999999   770.46781179308903
0.96446195000000 1.63768356000000  96.21693572000000   770.54305537045002
1.02005335000000 1.68679927000000 108.54991345000001   773.76726584136497
0.96446195000000 1.60934291000000 108.70604081000000   775.77876108884800
0.96446195000000 1.79020101000000 103.00000000000000   776.84869334101700
0.96446195000000 1.60804020000000 103.00000000000000   780.13427782058704
0.96446195000000 1.68888476000000  92.06030151000000   785.78521524369705
0.98490766000000 1.78076494000000  95.41803993000001   787.94871717691399
0.97804563000000 1.65680310000000 113.84003353000000   787.99969039857399
0.96446195000000 1.74379475000000  91.62528484000001   788.49907487630799
0.91033771000000 1.72080154000000 104.52105342000000   790.50570417940605
0.96446195000000 1.78666594000000  95.31063712000000   790.74125336110603
0.90660057000000 1.68888476000000 100.88694331000001   792.32298284769104
0.95631259000000 1.78826874000000 103.57291419000001   792.80335831642196
1.03033129000000 1.71517184000000 101.65596552000000   795.67693954706203
0.95965473000000 1.60657207000000 103.46794583000001   797.93174186348904
0.92827979000000 1.72067463000000 110.32596820000001   800.02677741646801
0.97358087000000 1.79057027000000 103.00000000000000   800.37260597944305
1.01931029000000 1.64377182000000 103.00000000000000   801.06144116818905
0.96446195000000 1.79512913000000 101.15824046000000   802.58850890398003
0.96446195000000 1.77359061000000  93.24990927000000   802.92075015604496
1.00961321000000 1.63101398000000 102.34462895000000   806.03996804356598
1.02907604000000 1.71508542000000 104.24649823999999   809.75405028462399
0.96446195000000 1.61322000000000 110.52883875000001   810.71799027919803
0.96488777000000 1.79476285000000  96.91768139000000   817.33717668056499
1.01133801000000 1.63511969000000 107.85199192000000   819.97718903422401
0.91182675000000 1.68888476000000 108.48894405999999   821.91417664289497
0.96446195000000 1.79638654000000  97.55789935000000   825.41090993583202
0.96446195000000 1.79767753000000  98.38383370000000   826.13258901238396
0.90446195000000 1.68888476000000 103.00000000000000   828.99362707138096
1.03159423000000 1.67264999000000 103.00000000000000   832.86517721414600
1.02067603000000 1.74889756000000 103.00000000000000   837.23851802945103
0.98015009000000 1.73804365000000 111.38474720000001   838.59257268905606
0.90705656000000 1.68888476000000  99.28222975000000   838.84823133051395
0.97315550000000 1.79369393000000 103.00000000000000   839.22261404991104
1.01432573000000 1.66525685000000 110.46301201999999   841.86407025158405
0.93210016000000 1.65533028000000  95.50959562000000   841.94394323229801
1.01339207000000 1.64603847000000  98.86889893000000   842.24892099201702
0.95120069000000 1.64011176000000  95.59594693000000   842.77863091230404
0.96446195000000 1.60574304000000 102.55102929000000   846.76388867199398
0.96446195000000 1.68888476000000 114.57286431999999   850.81525407731499
1.02043844000000 1.75121647000000 103.00000000000000   854.22422993183102
0.98708384000000 1.70294950000000 113.35199573000000   856.09304350614502
1.03446195000000 1.68888476000000 103.00000000000000   856.20354451239098
0.95104189000000 1.79244798000000 103.00000000000000   856.26233455538704
0.96446195000000 1.60286644000000 107.65300938000000   859.26771099865402
0.99833562000000 1.74130108000000  92.55152531000000   861.17155086994205
0.98017984000000 1.68888476000000  91.80600056999999   862.79921431839500
0.96885718000000 1.76780974000000 108.74184332999999   863.58835399150803
1.01824842000000 1.75973830000000  99.19292265999999   863.67964157462097
0.96446195000000 1.60150654000000 105.22772653000000   866.67759571969498
0.96446195000000 1.73504416000000 112.30114430000000   868.06036622822296
0.96446195000000 1.60388476000000 103.00000000000000   872.12503501772903
0.99710915000000 1.68888476000000 113.12783254000000   872.97723400592804
0.96446195000000 1.80112225000000 100.26871851999999   873.63134020566895
1.03517588000000 1.68888476000000 103.00000000000000   876.62051884829998
0.96446195000000 1.70395953000000 114.23758438999999   876.70606294274296
0.96446195000000 1.79648241000000 103.00000000000000   877.23026426136505
0.92269316000000 1.76622176000000 103.00000000000000   878.32593624293804
0.97814851000000 1.77158694000000 108.01321032000000   878.67547577619598
0.96446195000000 1.72699560000000  90.68848994000000   879.55645602941502
0.90586026000000 1.68888476000000  99.16841219000000   879.82991431653500
0.94316985000000 1.68888476000000  92.10027520000000   880.03915974497795
0.96446195000000 1.61887339000000 112.41408896000000   881.65280467271805
0.96107903000000 1.70061761000000 114.45650623000000   887.36597369611297
1.02826379000000 1.73705279000000 103.00000000000000   888.26595573127304
1.02141005000000 1.68888476000000 109.64224478000000   889.16649484634399
0.96446195000000 1.68888476000000  91.35678392000000   889.28494425118004
0.90231321000000 1.68702371000000 103.00000000000000   890.31450243294205
0.96446195000000 1.61518859000000  98.95108370000000   891.03625167906296
0.97650415000000 1.80077781000000 100.79463412000000   894.65987282991398
0.96446195000000 1.79666202000000 103.46617042000000   899.33241879939999
0.95362000000000 1.79925711000000 101.48082021000000   901.30260060727596
0.96446195000000 1.60581151000000 109.93103153000000   901.82396586239304
1.02175520000000 1.75372302000000 103.00000000000000   901.84020441770599
0.92929929000000 1.77785922000000 103.00000000000000   902.60153447091602
0.96446195000000 1.75143658000000  90.97520461000001   903.99643470346905
1.03022504000000 1.65578239000000 103.00000000000000   904.26818236708596
1.03173064000000 1.66878075000000 106.22111246999999   908.59679625928402
1.03667274000000 1.70145627000000 103.00000000000000   909.09832650423004
0.96446195000000 1.79888476000000 103.00000000000000   910.01876164972805
1.00981251000000 1.68888476000000  93.75134251000000   910.21991646289803
0.91015491000000 1.64715501000000 107.70842368000000   911.60478541254997
0.94065473000000 1.68888476000000  92.06321299000000   912.02734981477295
0.96446195000000 1.60175879000000 103.00000000000000   914.63938535749901
0.90941147000000 1.68888476000000  97.08813893000000   914.77183827757801
0.90597806000000 1.72757044000000 103.00000000000000   915.69754412770305
1.00691201000000 1.62976908000000  99.60629661000000   918.52343504130795
0.96446195000000 1.70876003000000  90.57778986000000   919.95667004585300
0.90919675000000 1.74281503000000 101.27032226999999   927.96182328462601
1.03713820000000 1.68176541000000 103.00000000000000   928.33769667148601
0.90099346000000 1.69267000000000 103.00000000000000   934.14278946816898
0.96446195000000 1.62583713000000 113.75434737000000   936.56355841457798
0.98404609000000 1.74546687000000  90.92191006000000   942.56319546699501
1.02424265000000 1.63888768000000 103.00000000000000   946.68994113802898
0.96446195000000 1.62091769000000  97.22890190000000   948.20900051295803
0.96446195000000 1.78523364000000  92.78052716000001   956.79328966140702
0.94077006000000 1.75505749000000 110.06991472000000   959.82818351686001
1.03445064000000 1.72843012000000 103.00000000000000   962.84405212104298
0.96446195000000 1.80276382000000 103.00000000000000   968.44517883658398
0.91238949000000 1.75391367000000 103.00000000000000   970.92136560380504
1.03946195000000 1.68888476000000 103.00000000000000   972.85577008128200
1.03561808000000 1.70957665000000 105.42179410999999   972.90370166301705
0.95552891000000 1.63552324000000  95.05513293999999   972.97825492918503
0.98327293000000 1.64927645000000  93.87050705999999   974.81608650088299
0.96446195000000 1.70909283000000 114.73353984000001   975.03189454972699
0.99373301000000 1.68888476000000  91.74533809000000   975.54622365534306
0.96446195000000 1.59888476000000 103.00000000000000   980.89522325992596
0.89949749000000 1.68888476000000 103.00000000000000   981.20362515747502
0.96446195000000 1.78993475000000 106.51376879999999   981.75236073136296
0.89946195000000 1.68888476000000 103.00000000000000   982.06390340626206
0.95671278000000 1.64396351000000  93.98398314000001   988.02384586632297
0.97619240000000 1.76772715000000 109.81068395000000   990.52827011048805
0.97349982000000 1.80131471000000 103.74652550000000   993.99179823696602
1.01559335000000 1.75181774000000  94.26976962000001   996.39604823291302
0.96446195000000 1.79253002000000 106.13553324999999   997.39996796846401
0.96579691000000 1.59721361000000 108.31793437000000   998.61149817705200
0.93563295000000 1.78088553000000 105.89319454000000   999.10534712672199
1.01035393000000 1.68888476000000 112.65572844000000  1001.28001993894600
0.93342338000000 1.63091174000000  96.93137629000000  1002.21482835710003
1.00609713000000 1.68888476000000  92.60366320000000  1003.87046326696895
0.96446195000000 1.68888476000000  90.65326632999999  1005.97064615786098
0.96446195000000 1.76600175000000  90.75933577000001  1009.98985880613304
1.03720481000000 1.68888476000000 106.45698865999999  1010.71578755974804
0.92621603000000 1.78202779000000 103.00000000000000  1011.42588019370999
0.90735530000000 1.74478330000000 103.00000000000000  1014.59982305765197
0.97459378000000 1.59855021000000 103.00000000000000  1015.81431725621201
0.97268103000000 1.76137810000000 110.89826207999999  1018.26935318112396
0.98695933000000 1.68888476000000 115.01461931999999  1020.49829703569401
1.00419311000000 1.61198491000000 103.00000000000000  1020.66450153291203
0.90832772000000 1.74827032000000 103.00000000000000  1022.03017804026604
0.91520422000000 1.76511090000000 103.00000000000000  1024.22760073840595
0.93121136000000 1.71445071000000 113.11963933000000  1024.40509516000702
0.96446195000000 1.59936745000000 101.84519695000000  1028.39729188382603
0.97122715000000 1.81088016000000 100.54276016999999  1028.92327912151791
0.89819761000000 1.68176463000000 103.00000000000000  1029.49721167981602
0.95764194000000 1.61368471000000  97.95380971000000  1031.87420111894608
0.89985783000000 1.71434045000000 103.00000000000000  1033.08640544116497
1.01858333000000 1.68888476000000 111.70280572999999  1037.52245470881508
0.93438637000000 1.78625522000000 105.04110473999999  1041.93498522043205
1.01149709000000 1.70250367000000 112.40072834000000  1043.64428383111999
0.96446195000000 1.75796138000000 111.56029010000000  1044.40181493759201
1.00466133000000 1.78322377000000  94.93669380999999  1046.13240575790405
0.96446195000000 1.80772559000000  95.45947712000000  1046.20780225098110
0.96446195000000 1.74905589000000  89.85520080000001  1046.26408731937408
0.91224051000000 1.70796106000000 110.40798644000000  1048.72931624949001
1.04271357000000 1.68888476000000 103.00000000000000  1049.55830433964707
0.96446195000000 1.59407480000000 104.25655079000001  1049.84975957870506
0.99989552000000 1.79418725000000 103.00000000000000  1050.91175526380493
1.01797306000000 1.77411550000000 103.00000000000000  1055.50295639038109
0.96446195000000 1.59332371000000 107.33918400000000  1058.10762088000797
0.96446195000000 1.59547739000000 103.00000000000000  1058.25217506289505
1.02520921000000 1.76779201000000 100.05887002000000  1065.63431958854198
0.89785519000000 1.68888476000000 100.82686590000000  1065.66420973837398
0.96446195000000 1.80888476000000 103.00000000000000  1065.68064777553104
0.89748897000000 1.67509919000000 103.00000000000000  1069.67079523205803
0.93020458000000 1.71759471000000 113.13031724000000  1070.05433085560799
0.96446195000000 1.80904523000000 103.00000000000000  1071.23285004496597
0.89687567000000 1.69043297000000 103.00000000000000  1072.47963434457802
0.95131379000000 1.59610653000000 103.00000000000000  1075.08731400966599
0.98381818000000 1.78306458000000 108.03837294000000  1075.19908732175804
1.04318243000000 1.68026202000000 103.00000000000000  1078.57640206813790
0.92588376000000 1.68888476000000 113.99550488000000  1081.74806238710903
1.01674206000000 1.68888476000000 112.46448493000000  1089.05457559227898
1.04446195000000 1.68888476000000 103.00000000000000  1090.14913551509403
1.04024066000000 1.66127760000000 103.00000000000000  1091.27368660271190
0.96446195000000 1.67760620000000 116.44500617999999  1091.41344058513596
0.96446195000000 1.60676990000000 112.80595432000000  1091.56106965243794
0.98835183000000 1.80976437000000 100.30641301999999  1094.39591836929299
0.96446195000000 1.61937054000000  96.32481370000001  1095.94608622789406
0.93274850000000 1.79190807000000  95.32895077000001  1096.80397069454193
0.96446195000000 1.72955201000000  89.30447940000001  1096.84530451893806
1.03644620000000 1.69944703000000  96.69659964000000  1098.26217906176998
0.99848838000000 1.79845409000000 103.00000000000000  1099.60680411755993
0.96446195000000 1.59388476000000 103.00000000000000  1103.58833630382992
1.01124501000000 1.76185123000000 108.02668911000001  1104.44933994114399
1.02082859000000 1.73820613000000  93.34703512000000  1105.89326575398400
0.96446195000000 1.80353776000000 105.21984383000000  1106.69318524003006
0.91781922000000 1.77619822000000 103.00000000000000  1106.73840054869697
0.96925853000000 1.81604126000000 100.51513369000000  1107.48600633442402
0.96446195000000 1.77609634000000 110.00136829000000  1108.33252792060398
1.00722092000000 1.68888476000000  91.98235406000001  1109.16015733778499
0.99192657000000 1.68888476000000  90.80745724000001  1110.27797223627590
1.02826045000000 1.63936070000000 108.11593637000000  1111.30521209538006
1.01612753000000 1.68888476000000  92.96607843000000  1111.79481895268009
0.95560219000000 1.80810159000000  94.67328655000000  1112.39068257808708
1.02733648000000 1.68888476000000 110.80980409000000  1112.77496168017410
0.89765733000000 1.66217634000000 103.00000000000000  1116.22480908036209
0.97872401000000 1.59843686000000 101.52332303999999  1116.91605450213001
0.89755001000000 1.66208421000000 103.00000000000000  1117.66040226817108
0.95283071000000 1.68888476000000  90.20975154000000  1119.04735223949001
0.99221450000000 1.80433629000000 103.00000000000000  1122.79368543624901
0.98952317000000 1.60819112000000 111.74411225999999  1125.43731726706005
0.91135911000000 1.62926494000000 109.39044031000000  1126.76745638251305
0.99273860000000 1.68888476000000 115.38426620000000  1127.88147327303909
0.96446195000000 1.68940299000000  89.94789323000001  1127.98516024649098
0.94270558000000 1.70137016000000  90.19120500000000  1128.03769613802410
0.96891078000000 1.80994539000000  94.36773884000000  1130.25968447327591
1.03122837000000 1.63605184000000 103.00000000000000  1131.40012443065598
0.89579934000000 1.70450092000000 103.00000000000000  1131.98220933973789
0.96446195000000 1.68888476000000  89.94974874000000  1133.89558093249798
1.04624929000000 1.69739362000000 103.00000000000000  1134.45878462493397
0.99140010000000 1.80797783000000  96.15497548000000  1135.18169747292995
0.98431548000000 1.68341132000000  90.52674903000000  1135.31890544295311
0.98698173000000 1.74349356000000  89.64612839000000  1136.93251655995800
1.04000735000000 1.65461038000000 103.00000000000000  1139.16144351661205
1.02410682000000 1.71772366000000  93.25129842000000  1140.39255516231106
0.96886953000000 1.71200788000000 115.65398260000001  1141.58659507334210
1.03497341000000 1.64220561000000 105.54880210000000  1142.08966921269894
0.99025364000000 1.69397772000000  90.30562292000000  1147.09525737166405
0.96446195000000 1.81388476000000 103.00000000000000  1147.62221364676998
0.96979198000000 1.81382988000000 103.00000000000000  1154.49104335904099
0.96446195000000 1.68690912000000  89.93759556000001  1154.81610777974106
1.00004910000000 1.72824684000000 113.16586260000000  1155.71711942553497
0.96552386000000 1.81418031000000 103.00000000000000  1157.37244567275002
0.89446195000000 1.68888476000000 103.00000000000000  1159.20625303685711
1.02233682000000 1.75266599000000  93.73291654000001  1163.12751729786396
0.96446195000000 1.77765698000000 110.28856276000000  1166.90397912263893
1.04410132000000 1.68888476000000 106.28054869000000  1167.84913133084797
0.96446195000000 1.82071889000000  99.51863650000000  1168.12963940203190
1.03166076000000 1.63428023000000 106.21524798999999  1170.67418660223507
1.04336812000000 1.68888476000000 106.72471056000001  1171.47261866927101
0.92443214000000 1.68888476000000 114.48715916000000  1173.81823085248493
0.93666589000000 1.68888476000000  90.76011059000000  1173.87234577536606
0.96446195000000 1.81532663000000 103.00000000000000  1178.77865335345291
0.96446195000000 1.71922132000000 115.51099791000000  1178.81868678331398
0.96553896000000 1.74321603000000 113.90767196000000  1178.97405591607094
0.94423529000000 1.68888476000000  90.23392549000000  1179.35265459120296
0.97431521000000 1.78509052000000  90.61609274000000  1181.00796209275700
1.02719462000000 1.62623725000000 103.00000000000000  1181.89126077294304
0.90919622000000 1.68888476000000  94.45980686999999  1183.45526397228195
0.96306363000000 1.63522434000000 116.36872405000000  1184.23619773984001
1.00156952000000 1.68641058000000 115.10042366000000  1184.60727521777198
0.95484987000000 1.67412137000000  90.50075266000000  1184.89097818732307
0.97801891000000 1.59218320000000 103.00000000000000  1185.19525980949402
0.91454990000000 1.61428226000000 103.00000000000000  1187.86539228260494
1.01702538000000 1.62221680000000 109.99910985000000  1189.37212584912800
0.99993394000000 1.78797962000000  92.61229263000000  1201.97210785746597
1.04168721000000 1.72114552000000 106.23751084000000  1208.28863979875996
0.97251102000000 1.75173830000000 113.33624291000000  1209.83228120207809
1.04916275000000 1.68888476000000 102.95286985000000  1210.12346038222290
1.01708933000000 1.68888476000000  92.36711181000000  1211.14994353055999
0.89295031000000 1.68696576000000 103.22894678999999  1213.71127311885402
0.92749029000000 1.80059714000000 101.43409290000000  1214.88482517003990
1.04946195000000 1.68888476000000 103.00000000000000  1216.18853892386005
0.96446195000000 1.58919598000000 103.00000000000000  1217.79184907674789
0.95198128000000 1.78594896000000 109.34719026000000  1221.88789890706494
0.91826030000000 1.67280547000000 114.24544666000000  1223.75736962258793
0.99496317000000 1.80913944000000 103.00000000000000  1227.31525778770401
0.96446195000000 1.58888476000000 103.00000000000000  1229.48401248455002
0.89712833000000 1.73160081000000 103.00000000000000  1230.17760902643204
1.00071135000000 1.62420773000000 113.73404549000000  1231.41348813474201
0.93886778000000 1.72457423000000  89.47286615000000  1233.68649061024189
0.95628374000000 1.81592480000000 103.64836344000000  1238.14376240968704
0.96446195000000 1.82395223000000  96.97686962000000  1238.21537373959995
1.01922712000000 1.64920794000000 112.91518687000000  1240.64282481372402
1.05025126000000 1.68888476000000 103.00000000000000  1241.01391901075795
0.90566862000000 1.74377594000000  95.50481041000000  1243.40271268785000
0.95854294000000 1.68888476000000  89.40461637999999  1244.79558442532993
0.89195980000000 1.68888476000000 103.00000000000000  1246.86964194476604
0.98079203000000 1.82235377000000 100.54571102000000  1254.13239826261997
1.04977444000000 1.68888476000000 104.76584733000000  1255.38743843138195
0.94909996000000 1.81681772000000 103.00000000000000  1260.63614925742104
0.94083078000000 1.68888476000000 116.63453350000000  1262.22170689702011
0.96446195000000 1.68888476000000  89.24623115999999  1264.06245779991104
1.02887979000000 1.65714723000000 111.68258896000000  1265.30634886026405
0.96446195000000 1.58448047000000 107.22510930999999  1266.02032981812999
1.00005861000000 1.59769114000000 103.00000000000000  1266.93972088396504
0.96446195000000 1.58600449000000 109.13181784000000  1267.68691003322601
0.90196314000000 1.63084117000000 102.81472727000001  1270.57859860360600
0.96446195000000 1.80131760000000 107.81677413000000  1282.59974282980011
0.96086210000000 1.73577325000000 115.13084019000000  1282.67487740516708
0.96446195000000 1.82160804000000 103.00000000000000  1284.61814773082710
0.99486500000000 1.68888476000000 116.23256262000000  1284.81065958738304
0.89805265000000 1.72037311000000 107.12158116000001  1284.92586226761296
0.96446195000000 1.81254528000000  92.58254789999999  1286.31835150718689
1.05213398000000 1.69766461000000 103.00000000000000  1286.53595830500103
0.93689309000000 1.81112819000000 103.00000000000000  1289.23227062821411
0.96412263000000 1.58660182000000 103.00000000000000  1290.58056126534893
0.97213815000000 1.75355079000000  88.38798026000001  1292.98993974924110
0.96396346000000 1.78235415000000  89.47995926999999  1293.16065530479000
1.01143953000000 1.68888476000000  91.16999074000000  1294.12015320360706
0.97501317000000 1.58504900000000 104.88564430000000  1294.53089107573010
0.92568308000000 1.67618685000000 115.77783895000000  1295.97887000441597
1.02280385000000 1.63517618000000 111.79418665000000  1298.79775871336506
0.96446195000000 1.78923205000000  89.86502010000000  1299.80244931578591
1.03552358000000 1.69740636000000  94.25816800000000  1300.02386201918102
0.98088807000000 1.58840701000000 103.00000000000000  1303.43600665032909
0.91366944000000 1.68888476000000 113.82589684000000  1311.36142010986805
1.01708103000000 1.79460633000000 103.00000000000000  1314.80437703430698
1.05187378000000 1.67903424000000 104.43474953000000  1317.24758960306599
1.03967640000000 1.67371026000000 110.08328607000000  1317.29282240569592
0.89110223000000 1.70801486000000 103.00000000000000  1317.67711818218208
0.99753629000000 1.73167685000000  89.02405675000000  1318.16944970190502
0.93897335000000 1.81767287000000  96.36367701000000  1320.28863859176590
0.93892506000000 1.59879193000000 112.61862390000000  1322.82937188446499
1.04683385000000 1.68947370000000 107.87771045000000  1323.78852853179001
0.89467426000000 1.65829518000000 107.73224999999999  1325.58551232516811
1.00700169000000 1.76763923000000  90.61341241000000  1330.84755478799298
1.00049905000000 1.68888476000000 116.12733162000001  1333.81811161339306
1.03597351000000 1.70471853000000  93.84705280000000  1333.99421565234707
1.02490015000000 1.68888476000000  92.49648331000000  1337.72737504541897
0.96446195000000 1.82522280000000 102.91448726000000  1341.19414988160111
0.93925365000000 1.68888476000000  89.64178613000000  1343.23394347727299
0.88946195000000 1.68888476000000 103.00000000000000  1345.50553557276703
0.99497724000000 1.68888476000000 116.63948624000000  1348.17211423814297
1.03947726000000 1.72850406000000 108.28269166000000  1349.39938735961891
0.95831321000000 1.80272992000000  90.76918397000000  1350.70771698653698
0.90735935000000 1.64527547000000 112.50814649000000  1350.90242339670704
1.05446195000000 1.68888476000000 103.00000000000000  1351.30428621172905
1.02455718000000 1.65129131000000 113.12448600000000  1353.80725149810291
0.90492438000000 1.61669900000000 104.82630181000000  1355.16704282164596
0.96839367000000 1.58915424000000 111.98064019000000  1361.62576314806893
0.94898384000000 1.70668123000000 117.02686725000000  1364.67781403660797
0.99450899000000 1.68888476000000  89.48484247000000  1370.61280958354496
0.93085645000000 1.80266383000000  93.55516698000000  1372.30751252174400
0.92421046000000 1.72294737000000 114.27932887000000  1374.14151433110192
0.94987721000000 1.70276934000000  88.48672562000000  1378.39073921740101
0.96446195000000 1.80261758000000 108.61553155999999  1383.16629886627197
0.96446195000000 1.78279902000000  88.85462036000000  1383.45421600341797
1.05574557000000 1.68888476000000 102.92722639000000  1383.63947056233906
1.03166123000000 1.68888476000000 112.48319391000000  1385.06317289173603
0.96446195000000 1.82788945000000 103.00000000000000  1389.36528672277905
0.96446195000000 1.58291457000000 103.00000000000000  1390.80917911231495
0.96446195000000 1.71176006000000  87.88867834000000  1396.96415144205093
1.02958526000000 1.73490583000000 110.52144478000000  1397.68762719631195
0.98650032000000 1.68888476000000  88.93873035999999  1397.89940048754193
0.89545283000000 1.67271201000000  97.39401087000000  1398.56881563365505
0.95777236000000 1.65510760000000  90.57637631000000  1398.71657903492496
0.98625758000000 1.75296124000000 114.04637101000000  1399.05458201467991
0.96446195000000 1.68888476000000  88.54271357000000  1401.92402258515403
0.93771826000000 1.58390144000000 106.03254978000000  1407.77326042950199
0.96446195000000 1.58434724000000 111.17372503999999  1410.09062254428909
1.04057742000000 1.68782140000000 110.85584227000000  1414.70702396333195
1.04227140000000 1.68888476000000 110.46425553000000  1417.65441864728905
1.03774359000000 1.70208103000000 111.15091682000001  1419.36314886808395
0.90647210000000 1.67214963000000  94.02474986999999  1419.68178519606590
0.98665265000000 1.67782478000000 117.79669767000000  1421.31135450303600
0.93125953000000 1.68888476000000  89.80094029999999  1421.61348839104198
0.89757750000000 1.63463735000000 101.33481861999999  1424.34420835971810
0.98043882000000 1.68888476000000 117.89883301000000  1424.70675261318706
0.96446195000000 1.60195059000000 115.23890163000000  1427.61282575130508
0.96446195000000 1.68154343000000  88.74472405000000  1428.41364578902699
1.05324011000000 1.66007393000000 103.00000000000000  1428.74296313524201
1.03707843000000 1.65844208000000  95.94961769000000  1429.73892021179199
1.03417786000000 1.77907257000000 103.00000000000000  1439.80377176403999
0.91125094000000 1.68888476000000 114.34173310000000  1439.82910290360496
1.05778894000000 1.68888476000000 103.00000000000000  1439.84764628112293
1.05692302000000 1.69790408000000 100.09382263000001  1440.90745471417904
1.04948938000000 1.66039188000000  99.32839011000000  1441.30741326510906
0.97979674000000 1.82674875000000  93.55479505000000  1448.05648414790608
0.96446195000000 1.79214483000000  88.95135021999999  1448.13438127934910
0.99270818000000 1.70142398000000  88.49597713000000  1449.26081898808502
0.89341065000000 1.67313149000000 109.65942892000000  1451.49862760305405
0.96446195000000 1.57793828000000 108.37071361000000  1456.90110550820805
0.94417770000000 1.68888476000000  88.76703394000000  1458.89376261830307
0.96446195000000 1.59692753000000  97.64042743000000  1460.26865200698398
1.03001011000000 1.67618686000000 113.59889029000000  1470.40576352179096
0.92807476000000 1.72063833000000 115.50949820000000  1470.67760558426403
0.90480291000000 1.66552207000000 113.53296717000001  1471.40483307838394
1.05428059000000 1.68888476000000 107.11038772000001  1471.41355587542103
1.04883783000000 1.68292232000000  96.44638630999999  1472.72832182049797
0.98905141000000 1.73508926000000  87.65790715000000  1474.36163842678093
0.95020715000000 1.58091622000000 110.36027153000001  1475.00009961426304
0.94894612000000 1.83532280000000  99.29630942999999  1477.13728635013103
0.94404732000000 1.83269951000000  99.82157648000000  1477.60255989432289
0.90990751000000 1.60510396000000 103.00000000000000  1480.03070098161697
1.03645879000000 1.66085358000000  95.11501754000000  1484.33221769332908
0.93045909000000 1.58763886000000 103.00000000000000  1486.17622016370296
1.00367941000000 1.63995078000000 116.46650615000000  1486.17881649732590
0.90227144000000 1.77551544000000  98.81836421000000  1487.33999989926792
1.05946195000000 1.68888476000000 103.00000000000000  1487.99891616404102
1.04333587000000 1.62965425000000 105.76156443000001  1489.05276082456089
0.96446195000000 1.80012682000000 110.12078604000000  1502.11368329822994
0.96446195000000 1.82329105000000  91.68290257000000  1503.70501908659890
0.96446195000000 1.83417085000000 103.00000000000000  1505.79350341856502
1.04394915000000 1.68888476000000 110.94268889000000  1507.08668304979801
1.05437433000000 1.68345283000000  97.92948642000000  1507.22078879177593
0.98203245000000 1.62205048000000 117.26047984000000  1507.48608390986897
0.93051407000000 1.74410684000000 114.37005215000001  1507.62614983320191
0.96446195000000 1.82937228000000 104.58624569000000  1510.75966617464996
0.88544233000000 1.68565017000000 103.00000000000000  1513.40069127082802
0.96446195000000 1.57888476000000 103.00000000000000  1513.56762501597404
0.90327245000000 1.68888476000000  93.21789481000000  1513.97808809578396
1.01998570000000 1.80494165000000 103.00000000000000  1515.31034865975403
1.04198618000000 1.62614999000000 103.00000000000000  1515.99630446731999
1.05770549000000 1.66494307000000 103.00000000000000  1518.65293648838997
0.99981211000000 1.60922037000000  96.65587574000000  1519.80867849290394
0.88862813000000 1.70216498000000  98.20276898000000  1521.44143517315410
0.98942011000000 1.65815057000000  90.19653830999999  1523.26195085048698
0.96446195000000 1.76946639000000  87.37545320000000  1526.72669166326500
0.96446195000000 1.68888476000000 118.79396985000000  1531.07472400367305
0.96446195000000 1.80742151000000 109.26794293000000  1531.35375180840492
0.99441746000000 1.82753201000000 103.00000000000000  1533.21200931072190
0.92631684000000 1.81566267000000 103.00000000000000  1535.73924447596096
1.03442097000000 1.64844175000000 112.65547237000000  1535.99022248387291
1.03132364000000 1.61035357000000 103.46465556000000  1536.00935572385811
0.96446195000000 1.73524695000000 116.75474981000001  1538.73347036540508
1.03403957000000 1.63489888000000 111.80009477000000  1540.70823666453407
1.00193040000000 1.71102550000000  88.28537634000000  1543.65567460656189
1.01350961000000 1.78461679000000 109.05513479000000  1544.83392737805798
1.04598095000000 1.73762262000000 107.89228611000000  1546.17267224192597
1.04419766000000 1.69694704000000  93.86190123999999  1548.85426793992497
0.89076684000000 1.69604355000000 109.06180768000000  1549.43434025347210
0.88446195000000 1.68888476000000 103.00000000000000  1550.56227920949505
1.03783990000000 1.78458509000000  97.55408774000000  1550.58375512063503
0.96446195000000 1.82814406000000  91.90658753000000  1551.22962629795097
0.88442211000000 1.68888476000000 103.00000000000000  1551.45952075719811
0.96446195000000 1.57650367000000 103.58779219000000  1551.80436085164501
0.96446195000000 1.68888476000000  87.83919598000000  1553.44471022486709
0.99531147000000 1.58371742000000 103.30233230000000  1555.27129815518902
0.98673454000000 1.80330545000000  89.44925078999999  1559.36900191008999
0.96446195000000 1.68981975000000 118.95491559000000  1560.84786966443107
0.89668447000000 1.67426724000000  95.25608049000000  1561.36975206434704
1.00109608000000 1.82515415000000 103.00000000000000  1563.15201400220394
0.90363489000000 1.68888476000000  92.80149991000000  1564.85205657780193
0.96446195000000 1.57883541000000 111.50218669000000  1565.27910274267197
0.93319431000000 1.68888476000000 117.92578256000000  1569.05753877759003
0.96446195000000 1.62972037000000  91.99004374000000  1569.99135343730404
1.03954848000000 1.66294461000000  94.75211485000000  1571.22752924263500
0.96446195000000 1.78339539000000 112.81368209000000  1571.26192010939099
0.96446195000000 1.57663317000000 103.00000000000000  1581.57486462593101
1.06196069000000 1.68888476000000 100.48939747000000  1582.34531305730297
0.96446195000000 1.77536309000000  87.20709558000000  1584.30938366055511
0.89664889000000 1.66543639000000  95.64742402000000  1586.07665915787197
1.04893605000000 1.63337531000000 103.00000000000000  1586.64008960127808
0.96446195000000 1.81686916000000 108.26920419000000  1587.48824879527092
0.96446195000000 1.83888476000000 103.00000000000000  1597.87171190977097
1.00259815000000 1.58640914000000 103.00000000000000  1598.13843098282791
1.01370048000000 1.76277437000000 112.07659341000000  1599.20454312861011
0.90344639000000 1.67728514000000  93.09270926000001  1601.79891955852509
0.96446195000000 1.83381532000000  92.31216464000001  1604.94300708174706
0.95819484000000 1.83993529000000  94.08840727000000  1607.27336943149589
1.03500792000000 1.68888476000000 113.67371009999999  1610.71766428649403
0.90267636000000 1.60744010000000 107.84627030000000  1611.40254023671196
0.96446195000000 1.79506507000000 111.67594669000000  1615.22029098868393
1.05906546000000 1.68888476000000 107.31272853999999  1616.49277308583305
0.97290634000000 1.84472597000000  95.57095627000000  1617.11812777817204
0.88346431000000 1.68888476000000 104.93891284999999  1620.46949648857094
0.96446195000000 1.81375024000000 109.08229544000000  1621.93056216835998
0.96446195000000 1.84045226000000 103.00000000000000  1625.77099865674995
0.98519046000000 1.82639116000000 105.96655248000000  1626.51795451343105
1.03608501000000 1.68828668000000 113.60810760000000  1627.38052816688992
0.96446195000000 1.61641032000000  93.29296519000000  1627.55820964276791
0.97227470000000 1.63388871000000 119.01110656000000  1627.59164594113804
1.05743527000000 1.68888476000000 108.23451633000001  1627.84152002632595
1.06446195000000 1.68888476000000 103.00000000000000  1627.92047542333603
1.05828484000000 1.65241900000000 103.00000000000000  1628.33605539798691
1.03058749000000 1.79980749000000 102.58882842000000  1629.11847038567089
1.05163338000000 1.68888476000000  95.18476367000000  1633.95790505409195
0.96467324000000 1.84100847000000 103.00000000000000  1637.46982783079102
1.04201260000000 1.78075509000000 103.00000000000000  1637.85326397418999
1.00154365000000 1.68888476000000  88.48204079000000  1639.24552984535694
1.02819398000000 1.60940469000000 110.61158103000000  1640.94994682073593
0.95775728000000 1.84146063000000 102.82770558999999  1647.71496118605091
0.93826246000000 1.83371626000000 102.62065500999999  1652.92244134843304
1.06532663000000 1.68888476000000 103.00000000000000  1653.29981106519699
0.95630030000000 1.63046764000000  91.56507130999999  1655.43136218190193
1.04461365000000 1.77743891000000 103.00000000000000  1659.48322290182091
0.97961951000000 1.84065488000000 103.00000000000000  1662.07007612287998
0.96446195000000 1.68888476000000 119.49748744000000  1662.37749244272709
0.93307661000000 1.77153855000000 113.12179191000000  1667.52283601462796
1.05788224000000 1.73438216000000 105.33071884000000  1667.72713564336300
0.96446195000000 1.82446708000000 107.66513664000000  1674.53905373811699
1.00320415000000 1.82984866000000 103.00000000000000  1675.03777295351006
0.88493135000000 1.72876848000000 102.44946172000000  1676.96438805758999
1.02556826000000 1.68888476000000 115.59033174000000  1677.81736114621208
0.97033735000000 1.68397336000000 119.64602671999999  1678.10812297463394
0.96427325000000 1.70489945000000  86.71054782000000  1678.35817074775696
0.94691390000000 1.68888476000000  87.62438954000000  1679.03410874307201
1.06614104000000 1.68410083000000 103.00000000000000  1683.04631671309494
0.96446195000000 1.69284944000000  87.07399001000000  1683.63981802761600
0.96446195000000 1.84583643000000 102.35746992000000  1693.15856365859509
0.89409203000000 1.72809412000000  94.01991968999999  1694.58824147284008
0.99245901000000 1.62278338000000 117.89150471000001  1696.77104535698891
0.95172712000000 1.75247089000000 116.23713540000000  1698.01980677247002
1.01317727000000 1.60197542000000 113.32101667000001  1698.23684827983402
0.91602505000000 1.81284541000000 103.00000000000000  1700.64812275767304
0.90708504000000 1.59848820000000 103.00000000000000  1704.81780584156490
1.04265142000000 1.68468263000000 113.09165651000001  1706.11277413368202
0.96147847000000 1.72660859000000 118.20721970000000  1706.40819929540203
0.96446195000000 1.68888476000000  87.13567839000000  1707.93663240969204
0.92043884000000 1.80116755000000 107.51564374000000  1711.41210563480900
1.03624830000000 1.79584290000000 103.00000000000000  1713.42050027847290
1.00728721000000 1.63513624000000  92.40418597000000  1713.76781234145210
1.00983814000000 1.82371393000000 104.02282142000000  1716.47376063466095
1.04815070000000 1.72273064000000 110.40257600000000  1716.57954162359192
1.03128255000000 1.68652360000000 115.08369390999999  1718.56369920074894
0.96446195000000 1.81967267000000 108.97705413000000  1720.71554544568107
0.98250409000000 1.83618445000000  91.76755611999999  1720.77791151404404
0.88293247000000 1.68888476000000  99.03567292000000  1724.19446729123592
0.96446195000000 1.68621320000000  87.17937193000000  1724.44635494053409
0.96446195000000 1.77721965000000 114.45121313999999  1724.95422588288807
0.96446195000000 1.74193353000000  85.94300398999999  1726.84807695448399
1.03620008000000 1.68888476000000  91.40826281000000  1730.33848737180210
0.88506124000000 1.68888476000000 108.71843042000000  1731.99293211102508
0.95033699000000 1.84365509000000 103.00000000000000  1736.36492587626003
0.96446195000000 1.72543984000000  86.00095123000000  1739.99013264477298
0.91190468000000 1.78792377000000 108.01537259000000  1741.84039193391800
0.96446195000000 1.61741520000000 118.96216828999999  1742.23039983212902
0.92290767000000 1.59415453000000 113.82802706000000  1743.52229037880898
1.04916679000000 1.77017513000000  95.65711813000000  1744.19024200737499
1.00753410000000 1.58097936000000 107.87351927000000  1748.62234492600010
1.03267727000000 1.77333237000000 109.07921605000000  1751.84583483636402
1.02909553000000 1.79922858000000  93.04906530000000  1753.92382095754101
1.01660048000000 1.82314303000000 103.00000000000000  1755.79083988070511
0.96446195000000 1.77607592000000 114.76522495000000  1757.71245925128505
0.95132899000000 1.78438834000000  86.83994178000000  1758.62358701229095
1.03451058000000 1.60380827000000 103.00000000000000  1760.70933495461895
0.98171363000000 1.57312628000000 103.00000000000000  1760.85139054060005
0.90670375000000 1.70599030000000 115.07951041000000  1761.28759026527405
1.06910143000000 1.69304258000000 102.94160171000000  1762.40562544763111
0.88140468000000 1.66055778000000 103.00000000000000  1762.77708722651005
0.96446195000000 1.81285784000000  88.13460090000000  1765.21823693811893
0.87946195000000 1.68888476000000 103.00000000000000  1768.94087541103409
0.94912589000000 1.56918108000000 109.74610520000000  1769.31418703496502
0.92837346000000 1.69343868000000 118.56477504000000  1771.92991140484810
0.96446195000000 1.57035176000000 103.00000000000000  1778.94480578601406
0.96446195000000 1.71532608000000 119.17002334000000  1779.17662897706009
0.90108560000000 1.72123152000000  91.30177549000000  1782.64459566772007
0.96325634000000 1.79520044000000  86.87346531999999  1784.45976804196789
0.90888651000000 1.71421445000000 115.22074410000000  1784.62903517484710
0.99655252000000 1.84717364000000  96.66062140000000  1787.66981218755200
0.98215980000000 1.57195544000000 110.72681258000000  1787.97967116534710
1.05467296000000 1.63556287000000 100.69109915000000  1791.08389508724190
0.96446195000000 1.67211211000000 120.49752607000001  1792.48961301147892
0.96446195000000 1.68888476000000 120.20100503000000  1793.92735765874409
0.94284108000000 1.84324207000000 103.00000000000000  1793.95637546479702
1.03798650000000 1.74469238000000  90.56210222000000  1794.89083139598392
1.01879335000000 1.80425782000000  91.00819497000001  1796.03938111662910
1.04774694000000 1.63223604000000  98.61468268000000  1796.70646166801498
0.96446195000000 1.83906808000000 106.02827274000001  1797.52772507071495
0.96446195000000 1.60485730000000 118.31758927000000  1797.67711290717102
1.03442110000000 1.63063255000000  95.74770891999999  1797.85530941188290
0.96585357000000 1.56968693000000 103.00000000000000  1800.71930865943409
0.93882998000000 1.57881846000000 113.21769508000000  1802.02149893343403
1.07006024000000 1.68888476000000 103.85439909000000  1805.23471024632499
1.00418267000000 1.83641904000000 103.00000000000000  1806.14045338332699
1.01382579000000 1.81306362000000  91.13764784000000  1806.21801505982899
1.06964812000000 1.68888476000000 104.58515432000000  1808.72251291573002
1.03326137000000 1.76200718000000 110.84354233000001  1809.14526732265904
0.98919343000000 1.67932899000000  87.52176639000000  1810.32706682383991
0.88301665000000 1.73513150000000 103.00000000000000  1811.26839606463909
1.05889469000000 1.65696582000000  98.02612809000000  1812.60795867443107
0.94490586000000 1.84532093000000 103.00000000000000  1813.14109218120598
0.98584484000000 1.84707058000000 103.00000000000000  1814.55127099156402
1.07096888000000 1.69376197000000 103.00000000000000  1816.77197915315605
0.99038572000000 1.76399559000000 115.50253574000000  1817.47363843023800
1.00962093000000 1.58219180000000 103.00000000000000  1820.20621483027890
1.01521330000000 1.62083154000000  94.29863290999999  1821.29997959733009
1.00166462000000 1.82141275000000  90.27161311000000  1822.57648040354297
0.96446195000000 1.73699184000000 118.22761361000001  1823.31726153194904
0.98434977000000 1.79568914000000 112.66291635000000  1823.96144402027107
1.07102379000000 1.68888476000000 103.19508389000001  1824.28677183389709
0.96446195000000 1.56888476000000 103.00000000000000  1825.44961307942890
0.96446195000000 1.73295471000000 118.49456410000001  1828.34412020444893
1.03322605000000 1.66239321000000 115.65736142000000  1828.59967696666695
1.00880339000000 1.80018108000000 110.05588530000000  1829.84545072913193
0.99914352000000 1.84122148000000 103.00000000000000  1829.86139628291107
0.96446195000000 1.85864190000000  98.35989025000001  1832.18821439146996
0.96446195000000 1.58489352000000  97.51730382000000  1835.34712834656193
0.98938830000000 1.61108922000000  93.53439604000000  1835.36287602782204
0.99812362000000 1.66089609000000  88.92764692999999  1835.84043705463409
1.06759687000000 1.68888476000000 106.89301544999999  1836.18998548388504
0.92230448000000 1.82847971000000 103.00000000000000  1836.35487586259796
1.07119347000000 1.68888476000000 103.84416908000000  1840.72992743551708
1.05874232000000 1.74529434000000 106.32160303000001  1841.49849849939301
0.97684044000000 1.81767522000000 110.15346266000000  1841.83604241907597
0.89956691000000 1.79377331000000  97.28772649000000  1844.03570596873806
0.88201163000000 1.64583640000000 103.00000000000000  1844.79985404014610
0.91210121000000 1.66325285000000 117.58188670000000  1846.13585899770305
0.96446195000000 1.70700214000000  85.89562586000000  1849.12966476380802
1.04228098000000 1.68888476000000 114.19090690000000  1851.05030666291691
0.88956023000000 1.76569518000000 103.00000000000000  1852.93992431461811
0.91224048000000 1.79204731000000  91.24510739000000  1853.75229072570801
0.96446195000000 1.68888476000000 120.50000000000000  1856.29567715525604
0.98988051000000 1.85183416000000  94.75150312000000  1856.51444879174210
0.96446195000000 1.82963412000000 108.52690492000001  1859.98529809713409
0.88434172000000 1.67399781000000  97.05993121000000  1860.25581324100494
0.99359349000000 1.85215569000000  99.95319666000000  1860.71270762383892
1.04315346000000 1.79547360000000 103.00000000000000  1862.51061768829800
0.96446195000000 1.85301508000000 103.00000000000000  1864.94926638901211
0.90671681000000 1.68888476000000  90.39136207999999  1866.58803686499596
0.99551762000000 1.68888476000000  87.10408382999999  1866.64154160022690
0.96446195000000 1.77397734000000 115.62879986000000  1867.17912907898403
1.02884308000000 1.82221736000000  99.63289928000000  1868.14215622842289
0.93994990000000 1.76751394000000 115.42814738000000  1869.59704251587391
0.88774620000000 1.76041994000000  98.22858478000001  1870.75810632109597
1.02352220000000 1.67107748000000 117.30544285000001  1871.74376805126690
0.96446195000000 1.68888476000000  86.43216080000001  1871.75245009362698
0.96446195000000 1.56409186000000 105.92626605000000  1872.92313249409199
0.98439640000000 1.62989820000000  90.80745330000001  1874.60812249779701
0.97024553000000 1.60395775000000 118.64411616000000  1875.10758981108711
1.07286432000000 1.68888476000000 103.00000000000000  1875.66125372052193
1.07030822000000 1.72549119000000 103.00000000000000  1876.76911535859108
0.98330168000000 1.60327881000000  94.14701758000000  1880.15034383535408
0.89361370000000 1.68888476000000  92.94090421999999  1882.08668513596103
1.00031668000000 1.57526281000000 103.00000000000000  1883.05377648770809
0.95009571000000 1.81626022000000  87.91804375000000  1892.44300010800407
1.07231703000000 1.67530163000000 103.00000000000000  1893.93938018381596
0.99711198000000 1.84301472000000  92.45328016000001  1896.01125250756695
0.87688442000000 1.68888476000000 103.00000000000000  1896.19156411290191
1.06589150000000 1.68888476000000 108.62612485000000  1896.92551730573200
1.01216699000000 1.81836475000000  90.56845936000001  1899.10702806711197
0.93479944000000 1.57141445000000 103.00000000000000  1899.94848838448502
1.01971691000000 1.82033620000000  92.18269275999999  1901.40795716643311
0.99823640000000 1.66103102000000  88.58726034999999  1907.84634999930904
0.95306469000000 1.79529921000000  86.34278107000000  1908.73540660738900
1.03366820000000 1.59480483000000 104.12572428999999  1913.58703565597489
0.98754520000000 1.84822514000000  92.10035139000000  1914.92262943089008
0.96446195000000 1.72509186000000  85.21035264000000  1915.04123254120304
0.88601535000000 1.75900668000000 103.00000000000000  1918.61866939067795
1.00130934000000 1.57378198000000 103.53839963000000  1919.79733717441604
1.06897018000000 1.73809517000000 103.00000000000000  1923.10110713541508
1.07446195000000 1.68888476000000 103.00000000000000  1923.77710676193192
0.96446195000000 1.85167885000000  91.68602478000000  1925.53582413494610
0.87668594000000 1.68888476000000 104.93861683999999  1927.54920914769195
0.93683790000000 1.56983116000000 103.00000000000000  1930.96763972938106
0.96446195000000 1.68888476000000 120.90452261000000  1933.81432132422901
0.87780413000000 1.71797244000000 103.00000000000000  1935.96739152073906
1.05400770000000 1.62962115000000 109.84119612000001  1936.71896357834294
1.02558234000000 1.58928503000000 102.49927085000000  1937.65102992951893
1.06869397000000 1.74514461000000 100.08425369000000  1942.15792354941391
1.04724182000000 1.72810741000000 112.23596691000000  1946.57028770446800
0.97200685000000 1.85559290000000  92.36863354000000  1950.54667226970196
0.94095704000000 1.85001023000000 103.00000000000000  1950.87709994614102
0.96446195000000 1.86417389000000  95.94948581000000  1952.73860320448898
1.05899210000000 1.68376220000000 111.50085232000001  1952.75960674881890
1.07083683000000 1.68888476000000  97.90161885000001  1955.43749327957607
0.90000292000000 1.80010502000000 103.00000000000000  1956.51406264305092
0.96446195000000 1.84510091000000 106.46530762000000  1956.65349419414997
0.96446195000000 1.81555383000000 111.55056974000000  1958.69357243180298
0.96446195000000 1.83579881000000  88.82188598000000  1961.57540372014000
0.97107175000000 1.69293179000000 120.85770359999999  1961.99458119273208
0.96446195000000 1.62043024000000 120.40257054999999  1962.37541972100689
0.98895947000000 1.56962182000000 102.53228335999999  1963.17540843784809
1.06899918000000 1.74544837000000 102.42586669000001  1965.41994184255600
1.06198659000000 1.68888476000000  94.60758210000000  1965.69362184405304
0.96446195000000 1.70810911000000  85.35777655000000  1966.29990477859997
1.05617353000000 1.62109526000000 103.00000000000000  1967.74456489086197
0.90231259000000 1.68888476000000 116.28198619000000  1973.07945527136303
0.96446195000000 1.74796859000000  84.78920755999999  1973.62898437678791
0.93338078000000 1.68888476000000  87.01441628000001  1974.91981786489509
0.99407609000000 1.85104638000000 103.32809849000000  1976.03454853594303
1.06615723000000 1.71169718000000  95.09122171000000  1978.38027623295807
0.96446195000000 1.60331560000000 119.33608275000000  1981.23542600870110
0.96446195000000 1.59048318000000  95.32741957000000  1981.77170166373298
1.07067775000000 1.65850585000000 100.83891149999999  1982.37179224193096
0.96078498000000 1.84632485000000 106.47409523000000  1986.16163480281807
0.87764237000000 1.68888476000000 107.49701803000001  1986.40094830095791
0.96446195000000 1.85929648000000 103.00000000000000  1986.74914780259110
1.06166195000000 1.76863915000000 102.73747013000001  1988.65103973448299
1.03077745000000 1.60502861000000 113.22894313000000  1988.90276746451900
0.96446195000000 1.71945240000000  84.99531466000001  1991.06577643752098
0.96446195000000 1.56407035000000 103.00000000000000  1993.34351985156491
1.06455461000000 1.75563860000000 104.36385579000000  1994.56199991703011
0.91956849000000 1.83397104000000 103.00000000000000  1995.98665830492996
0.96446195000000 1.56388476000000 103.00000000000000  2001.70209628343605
0.93436831000000 1.84860888000000 103.00000000000000  2005.52277144789696
0.92118052000000 1.83629484000000 103.00000000000000  2005.67270562052704
1.05066099000000 1.68888476000000 113.79280824999999  2007.70614503324009
1.02704164000000 1.82670680000000 103.00000000000000  2007.76326973736309
0.87488681000000 1.67550658000000 103.00000000000000  2007.79638716578506
1.05179861000000 1.62210893000000 110.37351253000000  2009.15870080888294
0.91039250000000 1.75463941000000 113.98825351000001  2010.15474843978905
1.04067540000000 1.81302321000000 101.27833532000000  2010.65059131383896
0.90210203000000 1.79623917000000 106.24084295999999  2013.22664313018299
0.95628190000000 1.70455338000000  85.39185845000000  2013.80207483470394
0.93389435000000 1.67337612000000  87.56726413000000  2013.81420882046200
1.07181987000000 1.73895990000000 103.00000000000000  2013.88226503133797
0.96446195000000 1.84305256000000 107.51475968000000  2014.07630385458492
0.96446195000000 1.86553874000000  94.49898159999999  2018.99010090529896
0.92337492000000 1.57952141000000 100.45368510000000  2019.51377819478489
0.93932375000000 1.74132935000000 118.27591906000001  2019.93943589925789
0.96446195000000 1.84915404000000 106.27453353000000  2023.88963600993202
1.05266434000000 1.61422242000000 108.06087173000000  2024.01088428497292
0.99129636000000 1.61112908000000 119.21343557000000  2024.17053185403302
0.96446195000000 1.69637308000000  85.49490689000000  2024.67986157536507
0.96446195000000 1.73055166000000 119.66873750000001  2025.09733474254608
0.89168118000000 1.71053358000000  91.96260334000000  2025.76047630608105
0.89747288000000 1.59364721000000 106.29126180000000  2025.84228286147095
0.96446195000000 1.83735090000000 108.76664316999999  2026.04026053845905
0.96446195000000 1.58571683000000  95.95690419000000  2033.11033825576305
0.98624567000000 1.56598865000000 103.00000000000000  2038.40765126049496
0.88557390000000 1.68888476000000 112.27824090999999  2039.44990786910103
1.06214575000000 1.77147436000000 102.93725190000001  2039.47134655713990
0.96446195000000 1.68888476000000  85.72864322000000  2043.59560434520199
0.98094529000000 1.60659845000000 119.55544387000000  2044.84852154552891
1.06772404000000 1.68888476000000  95.46400688000000  2045.38385406136490
1.06976553000000 1.68888476000000  96.10224447000000  2048.39162527024700
0.96446195000000 1.75978974000000  84.48673324000001  2051.62316362559795
0.96446195000000 1.80174211000000 113.93735608999999  2052.06276112794922
0.91402242000000 1.67850760000000 118.91332403000000  2052.38980083167598
0.87374585000000 1.69406212000000 103.00000000000000  2052.99029265344097
1.04586826000000 1.69018804000000  90.71027660999999  2053.41863067448094
1.00130097000000 1.58802066000000 115.85965419000000  2054.51967994868801
1.02322956000000 1.68888476000000 118.20984879000000  2056.93505121767521
0.93881673000000 1.56666818000000 112.33042964000001  2059.69836667180107
1.02330467000000 1.83994472000000  96.53953266000001  2061.50395737588406
1.04230264000000 1.78462120000000  91.16787594000000  2062.26815705001400
0.96446195000000 1.55882858000000 109.38484004000000  2062.50657245516823
1.06094041000000 1.68888476000000  93.48836061999999  2065.27497275173710
1.06393390000000 1.66589467000000 111.09978249000000  2066.65232953429222
0.87846358000000 1.73078748000000 105.53624253000000  2067.27943806350186
0.90131329000000 1.67324028000000  90.89162259000000  2072.04204595089004
1.07536080000000 1.73030936000000 103.48471172000001  2075.11404927074909
0.89297920000000 1.71356231000000 113.74466837000000  2075.45239777862980
0.93417758000000 1.59989999000000 118.63235095000000  2076.26869463920593
0.96446195000000 1.68888476000000 121.60804020000000  2076.43282982706978
0.90846194000000 1.82312899000000 103.00000000000000  2078.08577516674995
1.04735270000000 1.60333163000000 103.00000000000000  2081.43486355245113
0.89179795000000 1.63222109000000  96.49779928000000  2082.36233486235096
1.01065319000000 1.66278971000000  88.39710725000000  2084.78526204824402
0.90039382000000 1.80962507000000 102.82022170000000  2087.82466584444001
1.07060218000000 1.64203701000000 103.00000000000000  2092.00929962098598
1.07131112000000 1.68888476000000 109.11162955000000  2094.99301859736397
1.02122600000000 1.68888476000000 118.62927947000000  2096.88808219134808
0.99574574000000 1.68323938000000 120.83760657000001  2097.77140609919979
0.96446195000000 1.87096749000000  94.99044652000001  2099.89213673770382
0.96446195000000 1.68888476000000  85.50000000000000  2102.84818595647812
1.06022312000000 1.74667625000000 108.95880006000000  2104.67378345131920
0.95515685000000 1.86118987000000  91.86372376000000  2104.72234030067921
0.95301278000000 1.77915316000000 116.36419402999999  2105.37221588194416
0.96446195000000 1.82905814000000  87.00174516000000  2105.71845422685101
1.01306802000000 1.80429803000000  87.63664592000001  2106.12669174373104
0.97831547000000 1.69318233000000 121.41364114000000  2107.37647137045906
1.06497035000000 1.68888476000000  94.10153047000000  2108.05800539255097
0.99187245000000 1.68888476000000  85.89964491000001  2108.23425321281002
0.96446195000000 1.62841703000000  89.57631886000000  2110.61682820320084
0.96446195000000 1.86557789000000 103.00000000000000  2111.31634899973915
0.96319421000000 1.56059083000000 103.00000000000000  2111.54707381129310
0.87802843000000 1.68888476000000 109.61425027000000  2115.21137855947018
1.03818917000000 1.59228187000000 103.00000000000000  2117.79544177651405
0.92474176000000 1.60923923000000 118.86375629000000  2118.35486219823406
0.98371373000000 1.86331139000000 103.00000000000000  2120.59167180955410
0.90957544000000 1.68888476000000  88.65207494000001  2121.98164544999599
0.98880136000000 1.68888476000000 121.20725806999999  2125.51014390587807
0.98441781000000 1.87026375000000  99.34059533999999  2126.77902457117989
1.04705351000000 1.77593313000000 109.12002038999999  2127.61335089802697
1.02129787000000 1.83928120000000 103.00000000000000  2128.62419681251004
0.88257331000000 1.62040264000000 107.26423207000001  2128.87052221596196
0.87874869000000 1.68888476000000 110.15646088000000  2129.83609156310604
0.89580383000000 1.80198179000000 103.00000000000000  2133.23938232660294
0.96446195000000 1.85495223000000 106.21417456000000  2135.49055181443691
0.98629636000000 1.86312484000000 103.00000000000000  2136.86566591262817
0.98762586000000 1.62726316000000 120.98313532000000  2138.13278497755482
1.04648286000000 1.76961239000000 110.16180596000000  2140.28177516162395
0.92821967000000 1.60659971000000 119.11757231999999  2140.56822994351387
0.96446195000000 1.87167154000000 100.85155288000000  2140.75667771696999
0.91132441000000 1.68888476000000 118.80163294000000  2146.06956556439400
1.05097642000000 1.60466653000000 107.98635417000000  2147.02102334797382
0.94329416000000 1.86870523000000  98.59766977000000  2148.56157080829098
1.07554794000000 1.68888476000000 108.08382501000000  2152.64262218773410
1.07889324000000 1.73009076000000 100.75539050000000  2153.88584433495998
0.90972047000000 1.83434612000000 100.22536319000000  2156.92559906840279
0.90154427000000 1.81542520000000 103.00000000000000  2158.19845218956516
1.04058989000000 1.70697421000000  88.78662731999999  2159.93060503900097
0.98663966000000 1.84147889000000  88.28839524000000  2160.66478030383587
0.92621552000000 1.84971912000000 103.00000000000000  2160.77954865992115
1.03103162000000 1.66668264000000  89.53679357000000  2163.37345968186901
0.87919880000000 1.68888476000000 110.78119056000000  2164.16112589836121
0.88459580000000 1.68888476000000 113.00037718000000  2164.88811767101288
1.05510547000000 1.60900127000000 103.00000000000000  2165.91863891482399
1.07286679000000 1.72071255000000  95.26395124000000  2168.38478885590985
0.91611172000000 1.75929767000000 115.52116472000000  2170.52119164168789
0.96124704000000 1.86812440000000 103.00000000000000  2175.15970484912395
0.91678623000000 1.84001064000000 103.00000000000000  2175.43715167045593
0.96446195000000 1.58615382000000  94.98534764000000  2180.04662369191601
1.04539243000000 1.59873201000000 109.50879861000000  2180.17892542481422
0.93521320000000 1.85813475000000 103.00000000000000  2181.19758535921619
0.87789084000000 1.73665645000000  96.96454472000001  2183.40613992512181
1.03794885000000 1.78647572000000  89.35569101000000  2187.21690811216786
0.92639136000000 1.68888476000000  86.63080386999999  2188.38464027643204
0.96446195000000 1.78604378000000 116.37354800999999  2190.43604400754020
1.02329777000000 1.80484351000000  88.31096574000000  2192.79623053967998
0.95716289000000 1.68888476000000 122.10863114999999  2192.86676153540611
0.96446195000000 1.57982887000000 117.87489797000001  2194.53718067705586
0.91117551000000 1.73486618000000  87.16671946000000  2194.54161117970898
0.96446195000000 1.69267806000000  84.97073003000000  2194.72254581749394
0.96446195000000 1.67507184000000  85.76828555000000  2195.27317932248116
1.06477332000000 1.63413606000000 109.94691702000000  2195.61464461684182
0.96446195000000 1.61590463000000  90.50988961000000  2197.52842512726784
1.03045745000000 1.82333960000000  91.46782346000001  2205.20738400518894
1.07835543000000 1.71516450000000  97.02951500000000  2208.19821999967098
1.02343162000000 1.68888476000000 119.00933313000000  2208.65060162544296
1.05889124000000 1.77597916000000  93.30870754999999  2209.07384613156319
0.99847886000000 1.86134569000000  92.45655613000000  2209.27716758847191
0.95359322000000 1.70409657000000  84.65879820000001  2210.35152678191707
1.06241630000000 1.74421703000000  92.16870131000000  2210.75270345807121
0.96446195000000 1.85500061000000 107.12777144000000  2213.27832388877914
1.02612688000000 1.57906669000000 103.00000000000000  2213.96380217373417
0.96446195000000 1.87241752000000  92.71039564000000  2218.87057973444507
0.90205607000000 1.82513485000000  97.89108666000000  2218.93813478946686
0.96446195000000 1.55778894000000 103.00000000000000  2222.07279111444996
1.08152696000000 1.68888476000000 106.03090902000000  2222.12428274750710
0.96446195000000 1.68888476000000  85.02512563000001  2222.96166780591011
0.96446195000000 1.68357694000000 122.40671949999999  2223.68970453739212
0.91846290000000 1.57402053000000 113.19237692999999  2225.66757714748383
1.04471725000000 1.79813098000000 107.35917145000001  2229.20188285410404
0.96446195000000 1.68888476000000 122.31155778999999  2230.62914770841599
0.96446195000000 1.80813111000000 114.32062797000000  2231.58389647305012
1.00850959000000 1.82274474000000 110.11996590000000  2234.43141937255905
1.00478550000000 1.58476658000000  96.87880134000000  2235.71629159152508
1.02781782000000 1.68888476000000  87.63181029000000  2236.13807588815689
0.90666212000000 1.68964074000000 118.62226855999999  2237.42314006388187
1.02141166000000 1.63209403000000 118.96893304000000  2240.74976810812996
0.87250617000000 1.67256807000000  99.63654013999999  2240.88594920933201
1.08446195000000 1.68888476000000 103.00000000000000  2242.76606450974896
0.96446195000000 1.87185930000000 103.00000000000000  2251.72724595665886
1.03578315000000 1.82370230000000 104.86651327000000  2253.29431612789585
1.00429987000000 1.85992827000000 103.00000000000000  2255.61950221657798
0.98811007000000 1.68888476000000 121.86709729000000  2256.67317602038383
0.91467546000000 1.70324627000000 119.34636668000000  2258.84983029961586
0.91029022000000 1.80647952000000 109.56413182000000  2259.19932399690197
1.05783386000000 1.66014812000000 114.22807443000001  2259.24728952348187
1.06132036000000 1.66341238000000  93.71376402999999  2259.41090928018093
1.07922770000000 1.74028753000000 103.43139918000000  2260.19398540258408
1.08497572000000 1.68671760000000 103.00000000000000  2260.51086001098201
1.07538337000000 1.68888476000000 109.63418827000000  2261.95170326530888
0.98509920000000 1.84857357000000 108.28690931000000  2262.46385435760021
0.87838159000000 1.62466075000000 103.00000000000000  2262.73399920761585
0.96446195000000 1.55369855000000 110.30947501000000  2265.95104786753700
0.95385730000000 1.83767997000000  86.89062536000000  2269.32219628989697
1.01030808000000 1.61027235000000 119.01615701999999  2271.44288632273719
0.99055757000000 1.87205409000000  93.41345937000000  2272.85455369949295
0.96446195000000 1.55968916000000 113.75164746999999  2273.45308072865009
0.86946195000000 1.68888476000000 103.00000000000000  2276.60165043175220
0.96446195000000 1.69019247000000 122.51137740999999  2279.06623223424003
0.99607065000000 1.75130856000000 118.71334548000000  2280.76681359112308
0.86934673000000 1.68888476000000 103.00000000000000  2282.05829986929893
1.06929095000000 1.62488030000000 103.00000000000000  2285.42882031202316
1.01692728000000 1.85012779000000 103.73183926999999  2293.82783657312393
1.01339785000000 1.80655215000000 112.30049638000000  2297.90146708488510
0.96446195000000 1.74102432000000 120.40597993999999  2299.59451484680221
0.96446195000000 1.55195111000000 106.13111877000000  2302.40677015483379
1.06606886000000 1.78447573000000 102.69305568999999  2303.16585665941193
0.87839058000000 1.62216753000000 103.00000000000000  2305.21910209953785
1.02938005000000 1.71788838000000  86.53822379000000  2305.29006211459591
0.89851713000000 1.80515746000000  92.47239114000000  2306.72972546517803
0.89547327000000 1.63877789000000 116.96663584000000  2306.87563976645515
0.91781495000000 1.56922697000000 112.41590669999999  2306.87665407359600
0.96446195000000 1.61275038000000  90.39618367000000  2307.30212178826287
1.00894941000000 1.68888476000000 120.91634861000000  2322.00772295892193
0.96446195000000 1.84409723000000 110.10989770000000  2322.68402008712292
0.86998495000000 1.68888476000000  99.64728191000000  2323.38053333759308
0.96446195000000 1.72755482000000  83.47899843000000  2325.95614272355988
1.06674277000000 1.62643105000000  99.78082577000001  2327.08578707277820
0.97826137000000 1.78812003000000  83.72390769000000  2329.36546491086483
1.03044163000000 1.68888476000000  87.42983550000000  2331.65145632624581
0.96446195000000 1.60180264000000  91.69355075000000  2331.90119104087398
1.05264730000000 1.81744839000000  98.69007563000000  2337.30556091666222
0.96446195000000 1.84783178000000 109.59199921000000  2339.27879300713494
0.88293634000000 1.78206704000000 102.69228398000000  2340.66654874384403
0.96446195000000 1.81072920000000 114.72192694000000  2342.99831816554115
1.08086211000000 1.74631306000000  98.67562973000000  2343.54645773768380
0.96871548000000 1.87038646000000  90.28545561000000  2344.40578271448612
0.96765006000000 1.75907907000000  83.18545014000000  2346.73578734695911
0.97417669000000 1.61849650000000  89.66683833000000  2347.60614514350891
0.96446195000000 1.87630273000000 103.12445382000000  2347.77568896114781
0.92971430000000 1.79036557000000  85.26781801000000  2348.93679927289486
1.08793970000000 1.68888476000000 103.00000000000000  2354.23700654506683
1.06508114000000 1.78967098000000 103.00000000000000  2354.55024398863316
0.86823988000000 1.70037431000000 102.37483037000000  2356.11445336043789
0.96446195000000 1.76657463000000  83.17988065999999  2357.60678091645195
1.08807359000000 1.70093747000000 103.00000000000000  2359.13579972088291
1.08651010000000 1.68888476000000  99.63712365000001  2359.19304095208599
1.01634255000000 1.63223847000000  90.10490762000001  2359.45395195484207
0.96446195000000 1.74219430000000 120.62012036000000  2359.70749674737499
1.03935190000000 1.62677337000000  93.14624139999999  2362.45099684596107
0.90105592000000 1.64480335000000  91.37046893000000  2363.09565709531307
0.92112546000000 1.56132571000000 110.33470267000000  2366.80937083065510
0.92771611000000 1.86252898000000 102.65893364999999  2370.98644526302814
0.96446195000000 1.86763045000000  89.42080912999999  2372.81866648793221
0.89748311000000 1.75013072000000  88.63864589000001  2374.72982014715717
0.96446195000000 1.87814070000000 103.00000000000000  2374.85744385421322
0.96446195000000 1.71894771000000  83.46547319000000  2375.23465012013912
1.01243197000000 1.60514683000000 119.00960840000000  2376.49007320404098
0.99152322000000 1.73192022000000  83.58609328000000  2379.85283349454403
0.96446195000000 1.68888476000000 123.00000000000000  2379.89057743549301
0.93938494000000 1.60445584000000  91.77122579000000  2380.55399201810405
0.89280309000000 1.71598054000000 115.64656725000000  2381.89835242927120
0.96446195000000 1.68888476000000 123.01507538000000  2383.26359164714813
0.93291359000000 1.57184132000000  98.14000591999999  2383.67363075911999
0.98655498000000 1.87526678000000 103.00000000000000  2385.23654982447579
1.08799723000000 1.68888476000000 104.73086106000000  2385.66238668560982
0.89715604000000 1.81936767000000  94.87605261000000  2388.01845529675484
1.04107511000000 1.81499986000000 107.04040238000000  2388.93147316575096
1.04161083000000 1.58989439000000 100.84886652000000  2389.88957731425808
0.96446195000000 1.70525709000000  83.78561994000000  2391.37659960985184
1.01400829000000 1.84983248000000 105.84996934000000  2393.32941327989101
1.08381664000000 1.67672935000000 107.74742362000001  2393.57631553709507
1.06767501000000 1.66225028000000  94.17837917000000  2394.14539255201817
0.98025695000000 1.57535900000000 118.08420464000000  2394.17722235620022
0.90700691000000 1.64512551000000  90.30637962000000  2400.18996162712619
1.06721379000000 1.78863953000000 103.00000000000000  2403.66263927519321
0.98085246000000 1.68888476000000 122.83715352000000  2405.64536002278282
0.95393765000000 1.70708769000000  83.81920375999999  2406.25260218977883
0.91242423000000 1.84630102000000 103.00000000000000  2406.40338797867298
0.87310444000000 1.67844328000000 110.45422852999999  2406.73070162534714
0.87667291000000 1.76422950000000 103.00000000000000  2407.69086706638291
0.89586488000000 1.68885396000000  89.38813132999999  2408.89817379414990
0.89294208000000 1.79531975000000  92.27145588000000  2409.33199056982994
0.96446195000000 1.68888476000000  84.32160804000000  2410.56650789082096
0.90402115000000 1.68888476000000 119.16220668000000  2410.92523621022701
0.99653796000000 1.79492483000000 115.77858141999999  2411.84558102488518
0.99137116000000 1.87475582000000 103.00000000000000  2413.15655972063496
0.86727995000000 1.67561891000000 102.52686931000000  2413.27792562544300
0.97675960000000 1.77481323000000  83.06787627000000  2416.59262625873089
0.96446195000000 1.83741225000000 111.80173763000001  2416.98723693192005
1.05304622000000 1.68888476000000 116.18097935999999  2417.51430518925190
1.01389841000000 1.78965518000000  85.09118788000001  2417.80779264867306
0.89972453000000 1.82666589000000 103.00000000000000  2418.71870070695923
0.89720792000000 1.58227534000000 103.00000000000000  2418.74569119512989
0.96446195000000 1.88585139000000  93.84222269000000  2419.15587498247578
1.08830454000000 1.68888476000000  99.57306769000000  2420.65740425884678
0.98214011000000 1.68888476000000  84.40610436999999  2421.59680186212108
0.97563048000000 1.55052712000000 105.10743185000000  2424.54402282834099
1.08779699000000 1.66573730000000 103.00000000000000  2428.18494386970997
1.06261360000000 1.68800521000000  91.19956290000000  2428.73975351452782
1.00752244000000 1.86321613000000 104.12663188000001  2435.67566156387284
1.06939898000000 1.68888476000000 113.02190184000000  2439.04197619855404
0.87774720000000 1.68888476000000 112.72279263000000  2439.15938664972782
0.96446195000000 1.86923062000000  89.02850415000000  2442.02847301959991
0.98072226000000 1.68888476000000 123.00426323000001  2443.63446085155010
1.04917444000000 1.82523542000000  94.92541296000000  2443.73420834541321
1.02221083000000 1.68888476000000 120.36208803000000  2444.38343819975898
1.05582339000000 1.64797494000000  92.79737466000000  2445.60004304349422
0.98451477000000 1.88530128000000 100.08818798999999  2453.02653875946999
1.03001553000000 1.64543998000000 119.61069684000000  2454.57241392135620
0.96446195000000 1.77709363000000  82.88183515000000  2454.67714585363910
0.96446195000000 1.89007820000000  95.60867365000000  2455.28959459066391
1.03599497000000 1.70405277000000  86.81335654999999  2456.23388093709900
0.92780837000000 1.71922114000000 120.97827097000000  2462.17910371720791
0.92489939000000 1.85523919000000 105.47139219000000  2463.29956115782306
0.96446195000000 1.55150754000000 103.00000000000000  2464.31411933898880
1.05668725000000 1.67671237000000  90.57292914999999  2464.96921430528209
0.96446195000000 1.55257385000000 113.30549490999999  2466.31705909967422
0.87974565000000 1.68888476000000  92.91708328000000  2466.74259787797882
0.87485489000000 1.62219506000000 103.00000000000000  2467.35338172316597
0.94172402000000 1.55343308000000 103.00000000000000  2469.66167317330792
0.97827481000000 1.65821775000000  85.80575564000000  2470.61765152216003
1.01822347000000 1.68888476000000 120.93547700000001  2477.96499459445522
1.03768185000000 1.58354159000000 112.05288654000000  2485.24437963962600
0.96446195000000 1.88306371000000  91.45963906999999  2485.34160561859608
0.89673879000000 1.82481889000000 103.00000000000000  2489.77040210366204
1.07996540000000 1.63340397000000 103.00000000000000  2491.92496688664005
0.87030010000000 1.68888476000000 109.48777649000000  2492.01376411318779
1.02907079000000 1.61157544000000 118.24634938000000  2492.08588175475597
0.96590642000000 1.61031814000000 122.68036981000000  2494.63533940911293
0.99059429000000 1.68888476000000  84.31198879000000  2495.32491712272213
0.97162323000000 1.54679304000000 108.73742401000000  2498.21992966532707
0.99874898000000 1.56198973000000 100.59386780000000  2499.57179880142212
0.88672991000000 1.59150825000000 108.73864628000000  2501.57654459774494
0.96446195000000 1.88442211000000 103.00000000000000  2511.11193621158600
1.03129421000000 1.60466383000000 117.39719445000000  2514.33745916187809
0.89364505000000 1.79500768000000  90.96776570000000  2516.60454207658813
0.88261661000000 1.79231743000000 103.00000000000000  2517.70142869651318
1.07314580000000 1.68888476000000 112.79370349000000  2520.71329262852714
0.96446195000000 1.69870891000000 123.35124925000000  2521.65023787319706
1.09226830000000 1.68888476000000 104.51353899000000  2522.00533497333481
0.96152610000000 1.60386124000000 122.42276834000000  2522.95432677864983
1.03344148000000 1.85444644000000  95.51340669000000  2523.42214791476681
0.96446195000000 1.54601075000000 109.65656342000000  2524.82993246614888
0.90415428000000 1.69266507000000 119.70748127000000  2528.34608179330780
1.02331453000000 1.63144415000000  89.97362249000000  2529.50139483809517
0.96446195000000 1.88138944000000 104.32748862000000  2533.37368459999607
0.87961312000000 1.67517933000000  93.14118154000001  2534.55185727775097
0.96446195000000 1.62505402000000  88.16948632000000  2538.20031964778900
0.95569706000000 1.75463037000000  82.53197614000000  2541.52013254165604
0.96446195000000 1.68888476000000 123.71859296000000  2541.59188382327602
0.86522061000000 1.70604125000000 102.51662500000000  2541.91812796890690
0.88828731000000 1.70525268000000 116.14641192000001  2543.23974254727409
0.99875037000000 1.68888476000000 122.69170837000000  2547.11469565331890
1.04634305000000 1.68888476000000 118.03492873000000  2551.49422413110688
0.97067090000000 1.54968566000000 103.00000000000000  2551.86662489175797
0.87649527000000 1.76959810000000 104.70338844000000  2554.12794937193394
1.00268753000000 1.78169462000000  83.41731079000000  2555.48407678306103
0.87734865000000 1.68888476000000 113.54300191999999  2557.94079932570503
0.94678736000000 1.88252121000000 103.00000000000000  2561.58195577561901
1.07754552000000 1.68888476000000 111.97914349000000  2564.87379452586219
1.08630361000000 1.75190113000000 103.00000000000000  2572.57061722874596
0.95327661000000 1.68888476000000 123.77443298999999  2574.57659424841404
0.96446195000000 1.80978098000000  83.17398869000000  2576.36990173160984
0.94784180000000 1.88382915000000 103.00000000000000  2577.08123077452183
0.99607852000000 1.86954222000000  89.08585078999999  2582.22977462410881
1.07174045000000 1.78682368000000 104.44620758000001  2583.30236083269119
1.09493162000000 1.69838729000000 103.00000000000000  2583.95493954420090
0.92098840000000 1.55808027000000 103.00000000000000  2585.99722282588482
0.87329499000000 1.76330387000000 103.72411382000000  2588.60651485621884
1.08174719000000 1.76622608000000 103.61303081000000  2591.58822531998203
0.96446195000000 1.89619627000000  95.00229985999999  2593.30029098689602
0.90551307000000 1.68888476000000  87.06822575000000  2596.10430265963078
1.09537676000000 1.69633052000000 103.00000000000000  2597.31643792986915
1.04836230000000 1.84057791000000  97.59854729000000  2600.14978224039078
0.89864259000000 1.83330129000000  93.86374400000000  2600.17461185157299
0.96446195000000 1.80020396000000 117.30565867000000  2600.49647977948189
1.08381029000000 1.65651447000000  97.54948837000001  2602.13371793925808
0.96446195000000 1.84116974000000  84.69665540000000  2605.01594200730278
0.90656108000000 1.58543526000000  97.20792577000000  2606.26397666335106
0.96446195000000 1.68888476000000  83.61809045000000  2606.40997076034500
0.99880366000000 1.74994094000000  82.77364967000000  2606.43393275141716
0.96782856000000 1.87665668000000 106.44608269000000  2606.65954726934388
0.93266941000000 1.88366469000000  95.06185927000000  2607.37501677870796
1.09547739000000 1.68888476000000 103.00000000000000  2607.61109757423401
0.96446195000000 1.71906202000000  82.60489858000000  2608.81078045070217
0.96818195000000 1.58467460000000  92.99899908000000  2611.04143051803112
0.87576480000000 1.62585487000000 111.70022849000000  2612.26847003400280
0.98791092000000 1.86182548000000  87.03281434000000  2614.59362849593208
0.92061303000000 1.80294779000000 114.44325118000000  2614.83764156699181
0.92595267000000 1.75155615000000 119.66158540000001  2618.15625907480717
0.97150783000000 1.55249134000000 100.90096538000000  2621.34947665035679
0.97344639000000 1.86080277000000 109.64742493999999  2622.22718560695603
0.97981823000000 1.77336312000000  82.20530929000000  2622.35750098526478
1.08631244000000 1.75749660000000 103.00000000000000  2622.97724202275322
0.86406648000000 1.68888476000000 105.76379093000000  2625.81551404297397
0.95226615000000 1.56359687000000 117.98897078000000  2628.39856562018394
0.99886213000000 1.88731230000000  93.36534285000000  2639.53136219084308
0.99724338000000 1.84592174000000 110.94262611000001  2642.61503618955612
1.06121231000000 1.81919265000000  95.61954555000000  2643.24233150482178
0.90884263000000 1.65508531000000 121.52268285000000  2645.05131866037800
0.96446195000000 1.89070352000000 103.00000000000000  2646.18378010392189
0.96446195000000 1.64823108000000  85.79394038000000  2647.34934729337692
0.88898711000000 1.80940258000000  93.40221185000000  2650.44793394208000
1.00731692000000 1.57282634000000  97.09408406000000  2653.69131229817913
1.05950984000000 1.81383850000000  93.05887457999999  2654.25615105032921
0.99450103000000 1.89374871000000  96.19896314000000  2654.90732225775719
0.96446195000000 1.89372673000000 101.98520024000000  2658.12710773944900
0.96446195000000 1.84669910000000  84.80335482000000  2660.23013484477997
1.00310420000000 1.72208692000000  83.12536273000001  2661.62935875356197
0.99677098000000 1.82584980000000 113.83982426000000  2662.07784229516983
0.96446195000000 1.85547200000000 110.88065852000000  2665.55813397467091
0.92176253000000 1.79967563000000  84.78948579000000  2665.56909018755005
0.96446195000000 1.65593531000000 124.66669764000000  2665.78088712692306
0.96446195000000 1.63414596000000 124.41907260000001  2666.82689863443420
1.00633202000000 1.79749738000000 116.28670796999999  2668.07183530926704
0.96446195000000 1.61222436000000 123.63466373000000  2668.48056636750698
0.96293917000000 1.89666971000000  92.85441390000000  2671.19079427421093
0.88551986000000 1.72084810000000 115.36795453000001  2671.67460858821914
1.00739530000000 1.75927233000000  82.91483638000000  2673.85494838654995
0.88007866000000 1.63542090000000  95.33162778000001  2675.21470727026508
0.93896650000000 1.54893387000000 103.00000000000000  2677.02942268550396
0.94849397000000 1.89386507000000  93.07238454000000  2678.11882483959198
0.98369313000000 1.55340573000000 115.00940344999999  2688.16703230142593
1.05886613000000 1.68888476000000 116.88698588000000  2688.66275253891899
0.96446195000000 1.81200248000000 116.58330850999999  2695.54690891504288
1.07700600000000 1.75826917000000 108.70454912000000  2695.91638439893723
1.09780835000000 1.70672681000000 103.00000000000000  2699.19010399281979
1.08797414000000 1.71967238000000 108.68066417999999  2700.21803933381989
0.96446195000000 1.89276009000000  90.92126970000000  2704.51061883568809
0.96446195000000 1.68888476000000 124.42211055000000  2705.46197779476597
0.86180905000000 1.68888476000000 103.00000000000000  2707.91010478138878
0.98805854000000 1.54827099000000 112.62929486000000  2708.10705274343491
0.86426918000000 1.71098924000000  98.53255668000000  2710.91675357520580
1.00083759000000 1.78747398000000  82.68736070999999  2714.32839070260479
0.91148055000000 1.56019996000000 103.00000000000000  2716.60612536966801
1.00426206000000 1.66737565000000 123.44098266000000  2717.04756484925701
1.09438999000000 1.65601223000000 103.00000000000000  2718.25337076187088
1.00193456000000 1.67850702000000 123.47921366999999  2719.49399134516716
1.02251010000000 1.62158643000000 121.03880015999999  2721.52950331568718
0.96446195000000 1.54522613000000 103.00000000000000  2722.17911937832787
1.04029045000000 1.61598773000000  92.61312771999999  2722.62923033535480
1.05099664000000 1.64899527000000  90.36846369000000  2724.00697739422321
1.02888726000000 1.86334967000000 103.00000000000000  2724.06908892095089
1.07416699000000 1.77482328000000 107.77599762000000  2733.13425853848503
1.05732743000000 1.60888195000000  96.54600712000000  2734.16738250851586
1.00782803000000 1.63704354000000 122.99321873000000  2735.17452426254704
1.05127149000000 1.73631771000000 116.37537654000000  2736.98346668481781
0.89328390000000 1.63818691000000 119.15004544999999  2737.53376394510315
0.96446195000000 1.64862796000000 124.96762015000000  2737.60505099594593
1.00049357000000 1.59904986000000  91.25471138000000  2741.17301942408085
1.00403125000000 1.56651777000000 116.96487190000001  2743.80368110537484
0.88925459000000 1.82358806000000 103.00000000000000  2753.33631895482495
0.96446195000000 1.90291766000000  93.95378052000000  2756.04209521412804
0.90983867000000 1.74079054000000  84.75205775000001  2756.27515582740307
0.98307283000000 1.89389482000000  90.93757805000000  2756.70733112096786
1.07196268000000 1.66015841000000 114.90241732000000  2757.05470462143421
0.87327310000000 1.78068999000000 101.76230305000000  2759.31767532229378
0.94677031000000 1.54839389000000 114.70060730000000  2759.91615697741508
0.93484687000000 1.61208469000000 123.38208002000000  2762.42964586615608
1.09838701000000 1.68888476000000 105.56732001000000  2762.93802548944996
0.88295488000000 1.58967548000000 103.00000000000000  2763.04406021535397
1.02214900000000 1.85898347000000 106.42298929000000  2763.54665303230286
1.03562659000000 1.60182289000000  93.90251100000000  2764.58327335119202
1.09464366000000 1.71654922000000  96.53603776999999  2764.80442376434803
0.96446195000000 1.81463109000000 116.74297448999999  2765.43906439840794
0.95768004000000 1.89863349000000 101.73506786000000  2768.14515006542206
0.86098773000000 1.67748552000000 103.00000000000000  2772.21934144198895
1.09370903000000 1.64778125000000 103.00000000000000  2774.64349137246609
0.90156023000000 1.56225429000000 106.72330482000000  2774.64637728035405
0.89590574000000 1.83858284000000 103.00000000000000  2779.72811068594501
1.08034315000000 1.70654110000000 112.58384150000001  2780.91042903065681
0.93298664000000 1.84870838000000 111.02253903000000  2784.69977550208614
0.96446195000000 1.89698492000000 103.00000000000000  2787.26843877136707
0.96446195000000 1.68888476000000  83.00000000000000  2787.42664919793606
0.87934883000000 1.80378534000000 100.77544085000000  2791.09642527997494
0.96446195000000 1.64434072000000 125.12933864000000  2791.27199713885784
1.05986951000000 1.83381499000000  97.71984274000000  2791.53025682270481
1.07195734000000 1.80622075000000 103.00000000000000  2798.79326082766102
0.99135407000000 1.83625940000000 113.76898060000001  2799.43573035299778
0.87534421000000 1.60276322000000 103.00000000000000  2801.79784345626786
0.92591654000000 1.57057244000000 118.79098740000001  2803.77017495036080
0.90244962000000 1.82228027000000 109.76353388000000  2805.30634202063084
1.04240056000000 1.70595575000000  85.80261579000000  2806.12290580570698
0.96446195000000 1.68888476000000  82.91457286000001  2808.07910807430699
0.95201845000000 1.71080736000000  82.30674969000000  2812.18834044039204
0.98672344000000 1.79293558000000  81.82593248000001  2815.42644169926598
1.01784447000000 1.88346318000000 100.45602409000000  2815.51800136268093
0.86140590000000 1.67972952000000  99.93893104000000  2821.98965322971299
1.08287791000000 1.78730433000000  97.25110236000000  2822.15276958048298
0.96446195000000 1.89606064000000  90.04393448000000  2822.44099657237484
0.86109584000000 1.68888476000000 106.39046390999999  2827.64965303242207
0.93133524000000 1.74229424000000 121.66646138999999  2827.96686923503921
0.96446195000000 1.82994654000000  82.80594542000000  2830.15066190063999
0.96446195000000 1.86102987000000  84.90680517000000  2831.60115104913712
0.95336425000000 1.88611114000000  88.40368586000000  2832.65372729301498
0.93533122000000 1.73391187000000  82.36077580000000  2833.83532945811703
0.89778183000000 1.76132857000000  86.29112400000000  2834.83868131041481
1.05453552000000 1.75243314000000  86.51885497000001  2843.68150910735085
1.02866528000000 1.84742232000000 108.32171574000000  2845.09708347916603
1.03036949000000 1.63930403000000 121.49955649000000  2846.60677464306400
1.10210148000000 1.68888476000000 103.83071870000001  2847.04389414191201
1.03696781000000 1.86089997000000 103.00000000000000  2852.00173424184322
0.96446195000000 1.88508809000000 107.05578228000000  2852.77798248827503
0.96446195000000 1.55581521000000 118.05341857000001  2855.89260800182819
0.89473482000000 1.84569350000000 100.41136530000000  2860.08312740922020
0.92883770000000 1.89405937000000  97.16415144000000  2861.36709067225502
1.03181650000000 1.86696690000000 103.00000000000000  2861.51980006694794
1.08441409000000 1.68888476000000 112.70162295999999  2862.02576544880912
0.99107068000000 1.54572603000000 103.00000000000000  2863.17083889245987
1.10189533000000 1.68888476000000 100.12129280000001  2863.79898269474506
1.05236135000000 1.75814232000000  86.17100846000000  2864.15717066824391
1.04526772000000 1.68888476000000  86.48615373000000  2865.82654452323914
0.96446195000000 1.67656657000000 125.37334577000000  2866.98239466548011
1.09971838000000 1.68888476000000 106.84932748999999  2867.45219425857113
0.96446195000000 1.68888476000000 125.12562814000000  2868.05022315680981
0.96446195000000 1.54846536000000 116.18165024000000  2870.15707650780678
1.10301508000000 1.68888476000000 103.00000000000000  2870.91686259210110
0.96446195000000 1.84566596000000 113.72842244000000  2871.97249181568623
1.09389912000000 1.68888476000000 109.73458470000000  2876.83316192030907
0.99064534000000 1.89959640000000  91.54271783000000  2878.02853128314018
0.88372967000000 1.68888476000000  89.46816640000000  2882.80321478843689
0.92999546000000 1.77354161000000 119.65552200000000  2884.30230900645302
1.00177332000000 1.61483162000000 123.32517874000000  2885.61290873587086
0.93211956000000 1.84589655000000  85.11135941000001  2886.08795650303409
0.95012498000000 1.90705700000000  94.71472181999999  2886.44037337601185
1.08880466000000 1.72010258000000  92.93271761000000  2887.04898947477295
0.96446195000000 1.63066048000000 125.32568030000000  2887.62568011879921
0.96446195000000 1.68492681000000 125.29683009000000  2888.53059643507004
0.92648707000000 1.83715251000000 112.68904145000000  2888.53800654411316
1.06386579000000 1.82650901000000 103.00000000000000  2890.60230121016502
0.96446195000000 1.82988144000000 115.77904667999999  2890.95239567756698
1.06514443000000 1.59320239000000 101.39628737000000  2894.76543390750885
1.05261464000000 1.66561630000000 119.27424802000000  2894.92886929214001
0.91212493000000 1.64133030000000 123.02504620000001  2895.30918228626297
1.04253441000000 1.85677346000000 103.00000000000000  2895.31784747540996
0.97205937000000 1.56053703000000  96.37389734999999  2896.29215137660503
1.01808249000000 1.58689435000000  93.73913477000001  2897.14839620888188
1.10142073000000 1.73009324000000 101.85872132999999  2898.61901868879795
1.03450953000000 1.56365526000000 103.00000000000000  2899.50558215379715
0.96446195000000 1.53689144000000 110.05898963999999  2899.62096716463611
1.10387384000000 1.68888476000000 101.23301892000001  2901.05971097946212
0.96446195000000 1.91181299000000  97.60510533000000  2904.34555937349796
0.96446195000000 1.60200273000000  89.25112665000000  2905.65350672602699
0.96446195000000 1.84128745000000 114.54467133000000  2914.97175772488117
0.95516933000000 1.60686342000000  88.74794523000000  2916.49782313406513
0.86823302000000 1.71583660000000 111.20894790000000  2917.57356366515205
0.87144509000000 1.68505376000000 114.17028071999999  2918.02021335065410
1.07581452000000 1.68888476000000 115.16657255000000  2919.83809787034988
0.98365771000000 1.71148791000000  81.83315048999999  2920.02789133787201
0.96446195000000 1.90326633000000 103.00000000000000  2923.71241807937622
0.96446195000000 1.65700905000000 125.78839677000001  2927.49847139418080
0.94511761000000 1.89866075000000 103.00000000000000  2930.34072296321392
0.97262954000000 1.68888476000000  82.51555301000000  2931.10644422471478
0.96446195000000 1.86730460000000 111.02650260999999  2931.17948038876102
1.09417273000000 1.63504518000000 103.00000000000000  2932.37248723208904
1.08277643000000 1.71308150000000 112.89477943999999  2934.21553495526314
1.08683799000000 1.67638396000000  93.47170556000000  2935.83977964520500
0.96446195000000 1.53673810000000 110.96638235000000  2938.63652123510792
1.08758838000000 1.62015116000000 103.00000000000000  2938.80076487362385
1.02310789000000 1.68888476000000  84.27072776000000  2939.18734654784203
0.96158315000000 1.66489952000000  83.70183953000000  2939.80193053185894
1.02408774000000 1.68888476000000  84.32376893000000  2940.87592799961612
0.97871692000000 1.84290486000000 114.39438611999999  2942.52211393415882
0.97022449000000 1.58597280000000  91.27851883000000  2945.87617763876915
0.90388776000000 1.68888476000000  85.82154377000001  2948.48783421516418
1.07189898000000 1.68888476000000  89.61168237000000  2952.24840873479798
1.07839996000000 1.60936956000000 109.99853364000001  2955.01431320607708
1.10509041000000 1.68104555000000 103.00000000000000  2955.68927708268211
0.96446195000000 1.68888476000000 125.50000000000000  2958.32256008684590
1.09916429000000 1.64748449000000 103.00000000000000  2962.23101465403988
1.07937662000000 1.80258826000000 103.00000000000000  2968.80612120032310
0.89055995000000 1.68817312000000 119.72005320000000  2969.42231544852302
0.89672567000000 1.83498700000000 107.19047698000000  2978.54044839739799
1.05499535000000 1.78955637000000 112.80250527000000  2982.68758179247379
1.06071444000000 1.60865341000000  95.38360670000000  2982.96625520288899
0.96046147000000 1.71362021000000  81.47343051000000  2984.97456580400512
0.89133669000000 1.84064458000000 103.00000000000000  2986.72536256909416
0.93880343000000 1.89803335000000  90.83762268000000  2987.07034043967678
0.87379805000000 1.67762846000000 115.72815049000000  2990.33055236935616
0.96446195000000 1.56565330000000 120.86183876000000  2990.53588515520096
1.10077293000000 1.74667313000000 102.15404195000001  2992.77762638032391
0.95012640000000 1.54857746000000  99.24558227000000  2993.19062970578716
0.96446195000000 1.84016058000000  82.47211249999999  2993.25377979874611
0.97334869000000 1.68888476000000 125.57516431000001  2993.98957476019905
1.07814222000000 1.60175638000000 103.00000000000000  2994.97454471886203
0.96446195000000 1.53894472000000 103.00000000000000  2997.50922992825508
0.85934084000000 1.72236414000000  99.78071196000000  2999.07819594442799
0.96446195000000 1.53888476000000 103.00000000000000  3001.87949076294899
0.95017931000000 1.53879238000000 113.48188860000000  3001.98036286234901
0.97013558000000 1.68888476000000 125.66306677999999  3012.05566711723804
0.99339396000000 1.70367565000000 124.56654274000000  3014.05382171273186
1.10735148000000 1.70034079000000 103.00000000000000  3017.21655909717083
0.90653562000000 1.68888476000000  85.23399102000000  3018.09500010311604
0.96446195000000 1.68888476000000  82.21105528000000  3018.43343803286598
1.10706289000000 1.70298919000000 100.43384062000000  3020.11649051308586
0.86833686000000 1.77804508000000 103.00000000000000  3021.96643631160305
1.00127265000000 1.89871780000000 103.00000000000000  3022.57670846581505
0.88127084000000 1.68888476000000  89.29797040000000  3025.65549211204097
0.99923865000000 1.89980568000000 103.00000000000000  3029.23349379003002
0.91434777000000 1.57723896000000  95.05347530000000  3031.79044803977013
0.96446195000000 1.77005331000000 121.85072882000000  3034.07549914717720
0.98557439000000 1.67015287000000 125.70680406000000  3034.48431946337178
1.10552863000000 1.68888476000000 105.95848279000001  3034.61371818184898
1.04562055000000 1.86004964000000 103.00000000000000  3037.90484550595284
1.05641791000000 1.84601870000000 103.00000000000000  3039.07918250560806
0.99634301000000 1.90892544000000  99.68193169000000  3039.53495037555695
0.96446195000000 1.68888476000000 125.82914572999999  3041.60470154881477
0.93022659000000 1.60265526000000 123.90201089000000  3042.53575533628509
1.07151823000000 1.68888476000000 116.81302300000000  3043.43960487842605
0.96446195000000 1.84332838000000 115.06442815000000  3043.87441955506802
1.06300211000000 1.74720605000000 115.60002255000001  3047.46096961200192
0.96446195000000 1.69059352000000  82.06978035000000  3048.32990035414696
0.97491916000000 1.68888476000000 125.73712345000000  3049.90243783593178
0.96446195000000 1.88330147000000  85.71283932999999  3050.75344479084015
0.96446195000000 1.77226157000000 121.78786325000000  3052.26527893543198
0.95842506000000 1.90798163000000 103.10704186000000  3054.03501212596893
1.04077786000000 1.87403708000000  95.01651214000000  3054.08616736531303
0.89621707000000 1.72706795000000  85.46191897000000  3055.84973730146885
0.86390356000000 1.66198053000000 112.04094880000000  3055.88549025356815
1.03667496000000 1.84048985000000 109.91673532000000  3058.88891099393413
1.10611178000000 1.71951482000000 104.31354764000000  3059.17287965118885
0.91735855000000 1.65258031000000 124.43563263999999  3059.92502908408596
1.03857547000000 1.58739542000000  95.12189411999999  3060.80198664963200
0.91398437000000 1.54964800000000 103.00000000000000  3061.67120720446110
1.08735288000000 1.62873468000000  98.06631387000000  3067.29650901257992
0.97238970000000 1.84524525000000  82.36127639999999  3070.06572431325912
0.96446195000000 1.91930210000000  97.37656106000000  3074.63859014213085
0.95129781000000 1.91687694000000  97.20298561000000  3075.61742585897400
0.94803122000000 1.91047667000000 101.37434408999999  3075.73916301131203
0.90109352000000 1.86271801000000 103.00000000000000  3076.62778435647488
0.96446195000000 1.74517606000000  80.48690028999999  3077.04218915104912
1.03122745000000 1.72322800000000 121.36385866000001  3077.58131168782711
0.99912757000000 1.65472462000000  84.44802107000000  3079.88378348946617
0.91360438000000 1.68888476000000  84.29745443000000  3081.10791641473816
0.88879255000000 1.63113975000000 119.95771959000000  3082.14807678759098
0.95875969000000 1.55645581000000  96.21179607000001  3084.39442607760384
0.93541979000000 1.86765289000000 110.51743064999999  3087.55354499816895
1.03726535000000 1.68483918000000 122.02280331999999  3087.69377031922295
0.99548740000000 1.90344786000000 103.32454117000000  3088.08479854464485
0.96446195000000 1.71949542000000  80.93395769999999  3091.19861657917500
1.10588396000000 1.66012286000000 102.75534720000000  3091.66874778270721
0.96446195000000 1.68190204000000  82.30417121000001  3094.91182352602482
1.08040611000000 1.72925138000000  89.31155013999999  3096.41079857945397
1.09607060000000 1.68888476000000 111.34736839000000  3099.34374344348907
0.96446195000000 1.89017303000000 108.33223017000000  3101.90141117572784
1.09724789000000 1.70707638000000 110.43418864000000  3104.30090664327099
0.86869866000000 1.78764146000000  98.39221396000001  3104.33700907230423
0.96446195000000 1.87550132000000  84.44021171999999  3109.82148684561298
0.92303061000000 1.89182892000000 103.00000000000000  3110.01636877655983
0.97286451000000 1.53483994000000 104.47359888000000  3117.05966497957706
0.95017619000000 1.68888476000000 126.00249925000000  3117.64589707553387
0.96446195000000 1.90526423000000  88.55669889000001  3119.48304896056698
0.87026260000000 1.66495017000000 115.51162850999999  3120.26494280993893
0.86598882000000 1.60812688000000 106.37953515000000  3120.50495198368981
0.95382653000000 1.54974511000000 118.62934179000000  3121.71607084572315
0.92631226000000 1.82531662000000 115.68562980000000  3135.71980170905590
1.11055276000000 1.68888476000000 103.00000000000000  3136.07966542244003
0.97642557000000 1.72361466000000  80.68041035000000  3144.39631555974483
1.05608983000000 1.85691250000000  94.20007652000000  3144.41806124150798
1.06672161000000 1.67078983000000  88.75145087999999  3144.55555114150002
1.00707471000000 1.90973877000000  94.32689868000000  3153.09870828688099
1.04835337000000 1.56617826000000 103.00000000000000  3154.10576853156090
0.95975026000000 1.70543920000000 125.78980713999999  3156.80885437130883
0.85859636000000 1.73950169000000 103.00000000000000  3159.76243650913193
1.05411246000000 1.69127412000000 120.17905030999999  3159.83810460567520
0.96446195000000 1.90854602000000  88.73968755000000  3162.61836728453591
0.96446195000000 1.61633018000000  86.74757175000001  3162.95274677872703
1.00442671000000 1.78885727000000  80.96649171000000  3163.19021268188999
1.08389670000000 1.80402478000000 103.75187565000000  3164.23436953127384
1.08201512000000 1.60259385000000 109.45750537000001  3164.72351366281509
1.02034483000000 1.58485447000000  92.91229575000000  3166.09002473950386
0.85455870000000 1.68888476000000 102.35065939000000  3167.90058115124702
1.08201793000000 1.69466226000000 115.43451277000000  3168.71708902716591
1.11095595000000 1.68888476000000 100.58724189000000  3169.71068598330021
0.99308416000000 1.68888476000000  82.04180776000000  3170.73233267664909
0.85446195000000 1.68888476000000 103.00000000000000  3171.15002970397518
0.96446195000000 1.57445458000000  92.12369748000000  3174.06920413672879
0.96446195000000 1.79741259000000  80.22969215000001  3177.54743675887585
0.98913845000000 1.71007940000000  81.11651620000001  3177.59374514222100
0.97836319000000 1.68888476000000  81.73234927999999  3177.62268374860287
1.10623984000000 1.74425893000000 103.00000000000000  3181.95702351629689
1.00095782000000 1.61234273000000 124.66189469000000  3183.40158158540680
0.96446195000000 1.92505993000000  96.67766056000001  3186.62739759683609
0.85428147000000 1.69313713000000 103.00000000000000  3190.05258141457989
0.92740143000000 1.88875212000000 106.09683158999999  3190.27452218532608
0.96446195000000 1.72990193000000  80.34972946000001  3190.32398547232197
1.10433493000000 1.68888476000000 109.30462851999999  3192.24929413199379
0.87910898000000 1.68613527000000 118.39153601000000  3192.88364055752800
1.09919968000000 1.65812190000000  96.44679351000001  3193.28821615874813
0.96446195000000 1.61829040000000  86.43101772999999  3195.62528993189289
1.01019936000000 1.54578355000000 101.97690423000000  3196.65109813213303
0.96412112000000 1.54136775000000  99.91471876999999  3197.46768821775913
0.90274906000000 1.72460463000000 121.43335801000001  3200.52723798155785
0.97045118000000 1.54617456000000  98.34452413000000  3207.22463895380497
1.00678301000000 1.78182483000000 120.36456582000000  3209.72170001268387
0.96446195000000 1.91582915000000 103.00000000000000  3212.29767867922783
0.86379107000000 1.72467885000000 110.87896809000000  3212.51891148090408
0.88827056000000 1.83942852000000 105.00469860000000  3215.04127033054783
0.96446195000000 1.68888476000000 126.53266332000000  3216.74028202891304
1.08684953000000 1.80218919000000 103.41291617000000  3217.11850984394596
0.93775425000000 1.68888476000000  82.24110180000000  3217.61514566838696
0.87193548000000 1.70067140000000 115.89718127000000  3218.19996672868683
1.00134864000000 1.64567908000000  84.68884808000000  3218.47987046837807
0.89613560000000 1.55807858000000 103.25175487999999  3222.84514926374004
0.85369340000000 1.69281720000000 103.20674434999999  3224.11202618479683
0.90961170000000 1.73093073000000  82.98943894000000  3225.70408906042621
0.96446195000000 1.53386676000000 114.12744839000000  3226.06345103681087
0.95014138000000 1.87754367000000  84.27604180000000  3227.98168531060219
0.89004718000000 1.58187438000000  97.42656945000000  3236.62147814035416
0.91497233000000 1.86941355000000 108.15417741000000  3239.12777160108089
0.96446195000000 1.68888476000000  81.50753769000001  3241.22262059152081
1.01217177000000 1.90202547000000 103.00000000000000  3243.38092564046383
0.96446195000000 1.75948066000000  79.78242676000001  3245.56090907752514
0.90632165000000 1.54863023000000 112.62574818000000  3247.81517276167915
0.92027462000000 1.89441733000000  90.81306438999999  3251.40041674673603
0.99692893000000 1.53926294000000 114.00180099000001  3252.29647997021721
1.03356114000000 1.68888476000000 123.08881782000000  3252.90620836615608
1.01941225000000 1.58398223000000 121.25760977000000  3254.04095162451313
1.10368456000000 1.72467745000000  94.32207671000000  3254.36977377533913
1.05749363000000 1.61609744000000 118.92051925000000  3255.70192682743118
1.08442268000000 1.68888476000000  90.07667592999999  3257.05949692428112
1.09635982000000 1.68888476000000  92.67495054000000  3259.09772402048111
1.10127742000000 1.76194886000000  95.39389758000000  3260.64089237153485
0.89456167000000 1.68888476000000  85.84665104000000  3263.85762991011097
0.93554521000000 1.86759668000000  84.21085999000000  3266.94377952814102
1.11306472000000 1.69963401000000 104.87839236000001  3267.22142334282398
1.02740796000000 1.73119307000000  82.02877855000000  3269.77947029471397
1.09679297000000 1.68888476000000 112.67002599999999  3272.42055898904800
0.99773382000000 1.88932112000000 108.54502535000000  3273.27873018383980
0.86021947000000 1.76035853000000 103.00000000000000  3274.12266743183091
1.04541467000000 1.84505911000000 109.28675926000000  3276.32832971215203
1.11446195000000 1.68888476000000 103.00000000000000  3277.11952957510903
1.11038088000000 1.68888476000000  97.62412643000000  3277.86330211162613
0.88938920000000 1.70429185000000  86.07547099999999  3278.30987976491497
0.96446195000000 1.78176457000000 122.12192271000001  3279.23789684474514
1.10338395000000 1.75171081000000  95.15448142000000  3281.23779316246510
1.04944394000000 1.56331514000000 103.00000000000000  3281.67657396197319
0.85931404000000 1.66487516000000  96.55283444000000  3282.65130817890213
1.00370296000000 1.53692745000000 105.04350477000000  3282.87081797420979
0.85904522000000 1.73845654000000 106.97161027000000  3283.72495186328888
1.03092308000000 1.68888476000000  83.51303602999999  3287.81924511492298
0.96446195000000 1.78082906000000  79.61505452000000  3288.17370213568211
0.96446195000000 1.57887797000000  90.91720304000000  3288.29574139416218
0.86873441000000 1.78879450000000 105.64826069000000  3288.59108576178596
0.92710484000000 1.55143903000000 118.54160245000000  3291.32259793579578
0.96446195000000 1.53266332000000 103.00000000000000  3291.89604525268078
0.96446195000000 1.57938412000000  90.81817221000000  3292.73584590852306
1.06703050000000 1.57763650000000 103.00000000000000  3295.85116621851921
1.05252918000000 1.67397655000000  86.13568580000000  3296.17591680586293
0.96446195000000 1.90175558000000 107.76807920000000  3298.25142587721302
1.06971681000000 1.72848734000000  86.30701625000000  3300.57830716669605
0.92233957000000 1.89617203000000  89.92571181000000  3308.48539936542511
0.96446195000000 1.59989175000000  88.02855704000000  3310.23859892785504
1.09702068000000 1.79171406000000  99.26437778000000  3310.99527631699993
1.07275905000000 1.68888476000000 118.17206744000001  3312.07391884922981
0.96572131000000 1.85797980000000  81.86244197000001  3314.99487420916603
0.96446195000000 1.88474423000000 111.03672672000000  3315.89373105764389
0.85594739000000 1.73780630000000 103.36542879000000  3318.53777997195721
0.96446195000000 1.64362173000000  83.87836578000000  3319.34631924331188
1.06310738000000 1.57823411000000 112.50437841999999  3320.22817485034511
1.03268964000000 1.69361612000000  83.32078321000000  3321.60382868349598
0.90841039000000 1.59685646000000 122.76391166000001  3327.04160661995411
0.96446195000000 1.92860130000000  92.72863553000001  3327.49265238642693
0.86965395000000 1.68888476000000 116.25474168000000  3331.08740641176701
0.92172728000000 1.81073966000000 117.79171479000000  3333.01613874733403
1.08115550000000 1.82256000000000 102.84119637000001  3334.80391992628620
0.96446195000000 1.79127350000000 121.60909499000000  3335.57604652643204
0.96535550000000 1.67792788000000 127.23201229999999  3337.85086676478386
0.96446195000000 1.79536341000000  79.57980884000000  3339.16147540509701
1.05792426000000 1.86715074000000  99.28689146000001  3339.20447805523918
0.96446195000000 1.61414711000000 126.74384370000000  3340.76266035437584
1.11573811000000 1.70980930000000 103.00000000000000  3344.45147822797298
1.00720252000000 1.69820986000000 125.36886327000001  3347.71160918474197
0.92532420000000 1.88938632000000 107.12172455000000  3349.85136149823711
0.96446195000000 1.63810273000000 127.41119356000000  3350.27242098748684
0.87739189000000 1.68888476000000 118.72840925000000  3352.19781644642399
0.96446195000000 1.68904528000000 127.07581840000000  3353.40680056810379
1.01494970000000 1.70444788000000 124.69074770000000  3355.62227332592010
0.91980853000000 1.53977361000000 103.00000000000000  3356.59442868828819
0.96446195000000 1.84546671000000  80.94312226000000  3363.02523076534317
1.07896460000000 1.82824679000000 103.00000000000000  3365.38607563078403
0.96446195000000 1.74497714000000  79.53035644000001  3365.41693884134293
0.96204569000000 1.61683122000000 126.96685948000000  3366.91546314954803
1.00205758000000 1.70248221000000  81.12162225000000  3369.01563264429615
1.07110142000000 1.63695590000000 118.43718120000000  3372.40010933578014
1.03083662000000 1.77386609000000  81.62630711000000  3374.63323180377483
0.96647664000000 1.53100496000000 103.00000000000000  3378.11263611912682
0.96446195000000 1.77081793000000 123.32811751000000  3378.32400421798184
1.11079423000000 1.71036028000000  95.75217494000000  3379.72696113586380
0.97135025000000 1.57508404000000  91.17372644000000  3384.49618539214089
0.96446195000000 1.81896323000000  79.86234232000000  3387.46986763179302
1.00614146000000 1.73400790000000  80.37139053000000  3388.01719321310520
0.86620430000000 1.79541942000000  96.89442749000000  3391.67276926338718
0.96446195000000 1.68888476000000 127.23618089999999  3395.63395304977894
0.95311224000000 1.85531480000000 115.41127328000000  3397.46557499468281
1.10848280000000 1.75940265000000 103.00000000000000  3398.01909497380302
0.86316605000000 1.64138033000000 114.14997574000000  3398.86545240879104
1.10318967000000 1.62440555000000 103.00000000000000  3399.01689876616001
0.96446195000000 1.53252887000000 101.81958684000000  3400.62215062975883
1.01982148000000 1.68888476000000  82.38509535000000  3401.84010462462902
1.01536137000000 1.68888476000000  82.14339056000000  3405.68051844835281
1.04325858000000 1.55562823000000 103.00000000000000  3406.01782301068306
0.90104912000000 1.87850592000000 103.00000000000000  3414.51180045306683
1.11809045000000 1.68888476000000 103.00000000000000  3414.79333384334996
1.02823422000000 1.80290475000000 117.78120708000000  3416.39863684773400
1.09725080000000 1.78206979000000 105.85658382000000  3416.84085661172912
0.99896217000000 1.59578419000000 124.87386825999999  3417.20992688834713
0.99009365000000 1.73614221000000  79.70854391000000  3418.95909717678978
1.11608482000000 1.72649779000000 103.00000000000000  3419.18975310027599
1.00296952000000 1.70809469000000  80.81594468999999  3419.79217626154377
1.07011091000000 1.62883250000000 118.49574431000001  3419.92498131096409
0.92199075000000 1.66324247000000  83.75208264000000  3420.53124190866902
0.96446195000000 1.89682204000000 109.75960419000000  3420.93492430448487
1.04590466000000 1.71026094000000  83.42930092000000  3421.15112395584583
1.10299654000000 1.75899935000000 107.13691378999999  3421.46143461763904
0.92639138000000 1.65424763000000  84.01340000000000  3425.14015674591110
0.91403477000000 1.68888476000000  83.07752594999999  3427.33524386584804
1.09418443000000 1.80406713000000  96.06364935000001  3428.35750919580505
1.03356372000000 1.90153617000000  95.18692071000000  3432.29820591211319
0.85382286000000 1.68888476000000  97.51211800000000  3432.95434246957302
1.08686100000000 1.81683073000000 103.16187917000001  3434.83068254589989
0.86643287000000 1.78237058000000  93.34949494999999  3434.96299761533692
0.86315775000000 1.66249484000000 114.92466550000000  3435.02305614948318
1.11752948000000 1.68888476000000  99.71053302000000  3437.12995152175381
0.97837102000000 1.83506370000000 118.02520959000000  3440.33388273417904
0.96098855000000 1.83388861000000 118.24710623000000  3448.86365450918720
0.96446195000000 1.81901346000000 119.74512210000000  3448.92278581857681
1.10674335000000 1.68888476000000  94.17421697000000  3449.02448421716690
1.08854042000000 1.82017696000000  96.66078901000000  3449.04421781003521
0.96446195000000 1.82878018000000  79.90477287000000  3451.67018920183182
0.94019319000000 1.92515345000000  92.02514678999999  3451.88332664966583
0.96446195000000 1.93681021000000  96.50271794000000  3452.03323988616512
0.86992808000000 1.81103122000000 103.00000000000000  3453.55500309169292
0.96764729000000 1.81080403000000 120.53020165000000  3455.23009000718594
1.10642725000000 1.68888476000000  93.96683367000000  3457.66993728280113
0.96446195000000 1.83293029000000  80.00919184999999  3457.76669584214687
1.02326611000000 1.77003752000000  80.72689652000000  3457.85141408443496
0.98013757000000 1.74549992000000  79.24313203000000  3460.12622597813606
1.09098529000000 1.60867568000000  99.56531749000000  3460.81980024278209
0.96446195000000 1.91698100000000 105.97098020000000  3468.26716707646801
0.86290229000000 1.74383293000000 110.93011570000000  3472.47857540845916
0.96446195000000 1.68888476000000  80.80402010000000  3473.66651771962597
0.86551721000000 1.79744992000000 103.00000000000000  3476.28950744867279
1.07459714000000 1.84216124000000 103.00000000000000  3476.76689209043980
1.11887191000000 1.68888476000000 104.93100989000000  3478.83548228442714
1.08430838000000 1.59177637000000 109.72836979000000  3479.19030602276280
0.85174803000000 1.72305444000000 103.00000000000000  3481.60158625245094
1.05607222000000 1.70195724000000 121.22204494000000  3482.97684083878994
0.96446195000000 1.66822281000000  81.78918733000000  3486.20807997882412
0.99163793000000 1.92382115000000 103.00000000000000  3490.10490833222912
0.98473024000000 1.77562583000000  78.98057210000000  3494.46956455707596
0.96446195000000 1.55310318000000 121.76841684000000  3495.28275616466999
0.87573530000000 1.80346908000000  90.12244461000000  3498.36832830309913
0.96446195000000 1.76842914000000  78.88455279999999  3499.07946820557117
1.02198234000000 1.66055495000000  83.74219748000000  3499.08291321992920
1.09018555000000 1.81349089000000 103.49513896000001  3500.40848967433021
0.96446195000000 1.75970423000000  78.92331206999999  3502.49021342396691
0.96844723000000 1.91856789000000 105.98719045999999  3505.57987621426582
0.91101461000000 1.90402172000000  94.31013260000000  3508.59744793176696
1.06670487000000 1.57068197000000 103.00000000000000  3510.01023383438587
0.94249909000000 1.59019555000000 125.88357759000000  3510.55174441635609
0.96446195000000 1.68387036000000  80.90297008000000  3514.64516641199589
0.96446195000000 1.76506566000000 124.26591041000000  3514.67604735493705
0.91236831000000 1.62423183000000  87.07769521000000  3514.99017843604088
0.96446195000000 1.73636046000000  79.18717203999999  3518.51369711756706
1.11328100000000 1.75389913000000 103.00000000000000  3521.38431987166405
0.96446195000000 1.80018490000000 121.73269302000000  3524.86027827858879
1.02471188000000 1.74623859000000 122.78204318000000  3525.55955313146114
0.96446195000000 1.92128539000000 105.43523801000001  3526.95966184139297
1.11298098000000 1.70186857000000 109.18904172000001  3527.21717151999519
0.89027806000000 1.71715079000000  84.62627234000000  3530.30091357231095
1.09741815000000 1.68888476000000 114.51303894999999  3532.22056151926517
0.96478624000000 1.93886357000000  93.00533362000000  3540.36928370594978
0.96446195000000 1.84520140000000  80.13156785000000  3541.11498324572995
1.04100456000000 1.87772021000000 106.40014186000001  3545.25582401454403
0.85745733000000 1.71612596000000 111.10904517000000  3546.11378063261509
1.09751369000000 1.80581263000000 101.41860380999999  3549.03584124147892
0.96446195000000 1.87136648000000 114.49063327000000  3549.17321057617710
1.02376223000000 1.68888476000000 125.24376942000001  3549.40873236954212
1.11756131000000 1.74048992000000 102.34115315000000  3550.09724718332291
0.96230201000000 1.87770370000000 113.62638353000000  3550.90661299228714
1.05468918000000 1.68888476000000  84.56391326000001  3555.52793288230896
0.96446195000000 1.53842133000000 118.92282627000000  3558.47831451892898
0.91120434000000 1.87623778000000 108.75590400000000  3563.65004916489079
1.08578129000000 1.82385781000000 104.02294087000000  3564.52310758829117
1.11196392000000 1.73861403000000 107.41108115999999  3565.18532459437802
0.85734516000000 1.66852189000000 113.12810578000000  3565.26605510711715
0.96446195000000 1.68888476000000  80.50000000000000  3566.38480898737907
0.94537973000000 1.52806813000000 103.00000000000000  3576.02242210507393
0.96446195000000 1.58188034000000  89.35216769000000  3577.99442380666687
0.92940849000000 1.81972007000000  80.49909392000001  3590.47431278228805
1.06262246000000 1.66677215000000 121.44559739000000  3591.43644204735801
0.96446195000000 1.90295033000000  84.06827835999999  3591.66788180172398
0.96446195000000 1.68888476000000 128.00000000000000  3593.80155882239296
1.12118055000000 1.68888476000000 105.74280499000000  3594.44094944000199
1.08162213000000 1.76027700000000 114.55265113000000  3594.80517181754112
0.86539253000000 1.80459724000000 103.00000000000000  3597.44254678487778
0.87684058000000 1.83875920000000 103.00000000000000  3597.95754700899079
1.12311785000000 1.69916042000000 103.00000000000000  3600.28938989341304
0.96305028000000 1.63401327000000 128.37403337000001  3602.02951468527317
0.96446195000000 1.83630752000000  79.50048753000000  3604.45111331343696
1.02863374000000 1.88838856000000 107.42322174000000  3606.16140358150005
0.96446195000000 1.87347481000000  81.34676414000000  3606.36789484322117
1.05950204000000 1.62794190000000 121.23229519000000  3609.81317113339901
0.96446195000000 1.52638191000000 103.00000000000000  3611.34736968576908
0.92257576000000 1.85591869000000  82.72032449000000  3613.72367550432682
1.07372450000000 1.85835259000000  96.14146692000000  3616.10525162517979
0.85678106000000 1.76331866000000  96.37061941000000  3618.12065005302384
1.00540346000000 1.92284630000000 103.00000000000000  3618.77671167254402
0.94838730000000 1.61759838000000  85.33618767000000  3624.50390043854713
1.04336462000000 1.81252784000000 116.21150206999999  3625.71752901375294
1.10973885000000 1.68888476000000 111.85080001000000  3626.44855263829186
0.96446195000000 1.70734730000000 127.61326337000000  3629.51936644315720
1.02408287000000 1.53988003000000 103.00000000000000  3633.14736451208591
1.02507488000000 1.54028714000000 103.00000000000000  3635.07529777288391
0.96446195000000 1.91844103000000 107.31046007000000  3638.58137379586697
0.92136221000000 1.52861920000000 111.06268980000000  3638.86087967455387
0.84797738000000 1.70117844000000 103.00000000000000  3642.50814794004009
0.96446195000000 1.71161709000000 127.48668089000000  3646.02296550571918
1.10143434000000 1.79956256000000 103.00000000000000  3646.18731941282704
1.06054288000000 1.72092752000000 120.69870432000000  3647.44278329610779
0.93656839000000 1.91411666000000  87.06064730000000  3647.44288663566113
0.99124897000000 1.81986026000000 120.07940365000000  3648.70946565270378
0.86233506000000 1.71176498000000  90.83532571000001  3649.19222480058716
1.10962220000000 1.68888476000000  93.26865167000000  3649.65389283001377
1.10765258000000 1.69128370000000  92.56927051000000  3652.58999703824520
0.96446195000000 1.87532437000000  81.22337779000000  3654.43791051209018
0.96446195000000 1.82128550000000 120.52165581000000  3657.50649072229908
1.11616959000000 1.68888476000000  95.45653855000000  3659.51159018278122
0.96446195000000 1.94512407000000  93.41312658000000  3659.97964523732708
1.12450646000000 1.70263636000000 100.58450371000001  3662.56400257349014
1.12412423000000 1.68888476000000 100.30862614999999  3664.05046589672611
0.94449436000000 1.93091039000000 103.00000000000000  3665.03138992190406
0.96722674000000 1.52519604000000 103.00000000000000  3667.41827824711800
0.96386261000000 1.66135595000000 128.76024545999999  3676.47168523073196
0.96446195000000 1.55131726000000  94.32493950999999  3679.43973818421409
0.93818206000000 1.68888476000000 127.83948097000000  3679.48063187301204
1.04323152000000 1.79478265000000 118.17507831000000  3679.53965903818607
1.11054181000000 1.77841878000000 103.00000000000000  3679.92623479664280
0.96446195000000 1.83161783000000 119.69149401999999  3682.58458369970322
1.07058268000000 1.80937256000000 112.40561803000000  3683.94022955000401
0.96446195000000 1.94599513000000  98.37118294000000  3684.09130567312195
1.07810344000000 1.57603484000000 103.00000000000000  3689.25536315143108
0.95626472000000 1.56776997000000  91.18274804000001  3692.70294061303093
1.02401835000000 1.58101670000000 122.79417581000000  3693.61191082000687
0.90039097000000 1.54279958000000 103.36584864000000  3694.81330925226212
1.12562814000000 1.68888476000000 103.00000000000000  3695.75098039209797
0.98737206000000 1.94523298000000  96.24248496000000  3696.93537387251899
1.12358526000000 1.66610795000000 103.00000000000000  3699.81352233886719
0.96446195000000 1.91296777000000 108.98453895999999  3701.55775678157806
1.03966023000000 1.89910679000000 103.00000000000000  3705.91257821023510
1.11604825000000 1.63555700000000 103.00000000000000  3707.11336132883980
0.93883788000000 1.92961770000000 103.00000000000000  3707.14270831644490
1.06555695000000 1.62375960000000  90.02083775000000  3707.66750152409122
0.96446195000000 1.68888476000000  80.10050251000000  3708.97027608752296
0.84673367000000 1.68888476000000 103.00000000000000  3709.75633350014687
0.84774977000000 1.65919206000000 103.00000000000000  3711.21590161323502
1.06556981000000 1.68888476000000 121.38153534999999  3714.85213769972279
0.95967195000000 1.81615295000000 121.21537313000000  3715.73366779089019
0.96446195000000 1.86454813000000 116.30419465000000  3718.76339413225696
0.86391990000000 1.68888476000000  90.43649549000000  3718.99134673178196
0.95091034000000 1.81270836000000  78.71321322000000  3722.45239996910095
1.11018672000000 1.78251754000000 103.00000000000000  3722.49270802736282
0.84955120000000 1.70272183000000 108.08985663000000  3723.38248580694199
1.12654958000000 1.69143785000000 103.00000000000000  3727.11648644506886
0.94957895000000 1.93084725000000  87.98538791999999  3727.34633174538612
0.96316227000000 1.91528675000000 108.76085246000000  3729.20539286732719
1.10946224000000 1.77759508000000  94.50588557000000  3731.64475145936012
1.01815887000000 1.55919847000000 120.67761392000000  3731.85309018194721
1.12163924000000 1.68888476000000  96.99461340000001  3733.84119223058178
0.96446195000000 1.81431134000000 121.51362238999999  3734.38883233070419
1.11895928000000 1.68888476000000 109.45227487000000  3735.70693381130695
1.01796053000000 1.55662217000000  95.44297688000000  3738.05354547500610
1.03631518000000 1.57681994000000  93.13329105000000  3739.39822302758694
0.96089279000000 1.59343043000000  87.32128861000000  3740.19725807011082
1.00912052000000 1.56988827000000 123.23473610000001  3745.14323794841812
1.07665967000000 1.77185835000000 115.48429812000001  3747.96281181275799
1.10465414000000 1.79888724000000 103.00000000000000  3749.10234263539314
0.96446195000000 1.82187263000000  78.51623054000000  3749.30398829281285
0.96640957000000 1.87542555000000  80.72622567000001  3750.97447589039803
0.98710567000000 1.53835967000000 119.35584444000000  3751.84785139560699
0.96446195000000 1.68888476000000 128.64321608000000  3760.00802877545402
0.85920311000000 1.68888476000000 115.14790101000000  3762.78336693346500
1.11661381000000 1.63276254000000 103.00000000000000  3763.86667662859008
0.96446195000000 1.77379974000000 124.71406111000000  3764.11173121631100
0.85754088000000 1.78636740000000  97.89093880000000  3768.37133909761906
0.85249419000000 1.62205597000000 103.00000000000000  3772.15177878737404
0.96446195000000 1.64576034000000 129.14071258999999  3772.36701422929809
1.07854593000000 1.70224887000000 119.36727279000000  3772.51097489893391
0.96446195000000 1.66574042000000 129.09400209000000  3774.61664003133819
0.88256074000000 1.78097909000000  85.14056179000001  3775.13247486949012
0.96446195000000 1.83942172000000  78.89188083000001  3775.72668598592281
0.96446195000000 1.52604205000000 101.42446825000000  3778.95323409140110
0.99616055000000 1.67493478000000 128.18932203000000  3779.82410565018699
1.12116499000000 1.71968154000000  95.53362679000000  3782.67163760960102
1.01950228000000 1.83637519000000 117.27308488000000  3784.33283087611198
1.08206470000000 1.85318995000000  99.79390081000000  3786.04198931157589
0.91072634000000 1.83114197000000 116.66613029000000  3789.54443050921009
0.96446195000000 1.94095477000000 103.00000000000000  3792.06451381743000
1.07953658000000 1.68888476000000  86.51600769000000  3794.15603172779083
1.07644675000000 1.68888476000000 120.15496969000000  3794.83441828191280
0.96446195000000 1.89628457000000  82.07746371000000  3794.89558905363083
1.04965429000000 1.55306806000000 101.40737496000000  3796.41431391239212
0.89247483000000 1.66778441000000  85.19345240000000  3797.23437218368099
0.85428205000000 1.70035051000000 112.54253366000000  3798.87951412797020
1.11744255000000 1.68888476000000  94.45630005000000  3799.15125933289482
0.97896014000000 1.54127146000000 120.87589430000000  3799.20374177396297
0.96446195000000 1.90741658000000  83.07782345000000  3801.63742800056889
0.91284121000000 1.67010568000000  82.84070628000001  3804.89145573973701
0.89475255000000 1.54305376000000 112.67346947000000  3806.69043907523201
0.87364795000000 1.62921977000000 120.25232085000000  3807.93975162506104
1.12376761000000 1.74738128000000 100.47810242000000  3809.67195849120617
1.10935542000000 1.69509153000000  91.65086330000000  3811.02633447945118
1.06341432000000 1.85851905000000 107.49791625000000  3811.81711341440678
0.90303073000000 1.74170191000000 123.25914193000000  3813.39298361539795
0.84541152000000 1.67663767000000 103.00000000000000  3815.25973285734699
0.96446195000000 1.68880056000000 128.85731632000000  3818.70547129213810
0.99694821000000 1.83281311000000 119.40826159000000  3820.47450560331299
0.96446195000000 1.55305747000000  93.30566181000000  3820.92318184673786
1.00580859000000 1.52447274000000 108.21975587000000  3822.42590184509800
1.04358650000000 1.59916211000000 122.82465424999999  3823.72049957513809
1.05987787000000 1.60888408000000  90.54012840000000  3826.37097197771118
1.12363611000000 1.66427357000000 107.70633586000000  3831.47246120870113
0.96446195000000 1.86599177000000 116.77929995000000  3832.02691027522087
1.04615210000000 1.89833265000000 103.00000000000000  3833.67270451784088
0.99115805000000 1.54826403000000 121.82178541000000  3841.65908317267895
0.85488350000000 1.68888476000000  93.14305997000000  3842.29168978333519
0.95759554000000 1.68888476000000 128.92749273999999  3843.12695597112179
1.11350460000000 1.62037759000000 103.00000000000000  3844.07634769380093
1.05365418000000 1.83915219000000 112.90116564000000  3844.74625669419811
1.01878722000000 1.68888476000000 126.84573996000000  3850.53198699653103
1.00557399000000 1.66146278000000  81.77466015000000  3852.16557873785496
0.86175964000000 1.80689102000000 103.00000000000000  3852.49970614910080
1.09309810000000 1.83724419000000  99.44924614999999  3853.63320258259819
0.90139235000000 1.89504392000000 104.29842223000000  3854.68912293016911
1.12984907000000 1.68888476000000 102.16271266000000  3855.45551538467407
1.04829567000000 1.60245241000000 122.62186688000000  3856.23211462795689
0.90189680000000 1.60677415000000  88.68662220000000  3859.14872521161988
0.92482681000000 1.52729846000000 103.00000000000000  3861.46236534416721
0.96446195000000 1.58372458000000 127.23482552999999  3863.16191166639283
1.00849721000000 1.68888476000000 127.60880215000000  3867.06974394619510
0.96446195000000 1.81420462000000  77.90759552999999  3870.10639324784279
0.93929007000000 1.94011004000000 101.77708069000001  3871.13276141881897
0.99795273000000 1.67153806000000  80.86755982000000  3871.86551241576717
1.09943037000000 1.63533622000000 115.48159275000000  3872.06234157085419
1.03422582000000 1.68888476000000  81.71196836999999  3872.31190465390682
1.11329380000000 1.70233816000000  91.99655364000000  3873.33813680708408
0.98032908000000 1.68888476000000  79.64591553000000  3878.28727370500610
1.02774095000000 1.68888476000000 126.28405735000000  3879.49013994634197
0.84848609000000 1.63389818000000 103.00000000000000  3879.74715094268322
0.86303660000000 1.81070473000000  94.73736298999999  3886.07002831995487
0.96446195000000 1.52283414000000 101.94511987999999  3887.70036843419120
1.02284717000000 1.68888476000000 126.72085855000000  3892.50818039476917
0.84422668000000 1.68888476000000 103.03048642000000  3892.56667889654591
0.93125067000000 1.52469471000000 103.00000000000000  3892.73937150835991
0.88473017000000 1.55955864000000 100.03281995000000  3896.40388683974697
0.87549386000000 1.82109284000000 109.87611022999999  3904.44943937659309
0.97048750000000 1.52092027000000 103.00000000000000  3907.35846528410912
1.11300055000000 1.79074612000000  96.32713241000000  3908.12372048199222
0.94354507000000 1.89358259000000 112.89006702000000  3909.54407615959599
0.96446195000000 1.88900679000000 114.29995362000000  3911.81652338802814
1.09037971000000 1.84466475000000 100.41610011000000  3912.95514874160290
1.12182608000000 1.73604544000000 107.53509724000000  3916.69950833916710
1.01828762000000 1.68888476000000  80.65574509000000  3918.65322044491813
0.98881633000000 1.51825558000000 107.82937671000001  3920.16295437514782
1.01044796000000 1.85723485000000 116.45413506000000  3920.71358822286084
1.04279258000000 1.57721746000000  92.91028853000000  3921.57330928742886
1.01049496000000 1.53706612000000 117.85747108000000  3923.24512587487698
1.11891519000000 1.77143103000000  96.23057841000001  3926.91459745168686
1.06882203000000 1.87422898000000 103.06199832000000  3929.80541905760811
0.95457881000000 1.94537734000000 103.00000000000000  3930.28534981608391
0.95334204000000 1.57112946000000 126.40148766000000  3937.06595821678593
0.96446195000000 1.52010050000000 103.00000000000000  3938.32603548467205
0.96446195000000 1.94723618000000 103.00000000000000  3940.04859066009521
1.08283661000000 1.86155548000000  98.29390375000000  3940.54756234586193
1.01419001000000 1.68888476000000 127.52899197000001  3940.94760288298085
0.96446195000000 1.93539607000000 106.37188797000000  3941.17364883422897
1.13133896000000 1.67747940000000 103.00000000000000  3943.32620278000786
1.11335351000000 1.67622802000000 113.47229716000000  3943.42815274000213
1.02013469000000 1.72323567000000  79.43145266000001  3944.59147290885403
1.06396325000000 1.68888476000000  83.98562973000000  3945.55208308994816
0.92217796000000 1.80961703000000  79.41806778000000  3946.64014351367996
0.96446195000000 1.52334922000000 117.06704525000001  3947.43185365199997
0.84361890000000 1.69430293000000 103.00000000000000  3947.94834257662296
0.96446195000000 1.68888476000000 129.34673366999999  3948.07968035340309
0.84533202000000 1.68888476000000  98.60753635000000  3951.45455484092190
0.96446195000000 1.51733068000000 113.81482151000000  3952.12714017927601
0.96446195000000 1.68888476000000  79.39698491999999  3953.89614364504814
1.05117906000000 1.63344445000000 124.24202181000000  3960.88098780810788
0.98932039000000 1.92326387000000  84.38579910999999  3966.38225831091404
1.04103040000000 1.90692400000000 103.91715682000000  3966.70965702831700
0.96446195000000 1.63361534000000 129.76092581000000  3968.14537455141499
0.98129384000000 1.68391545000000 129.27132906000000  3969.95095258951187
1.12910909000000 1.68888476000000 107.29342782000001  3973.99314175546215
0.84968973000000 1.76072815000000 103.00000000000000  3977.32748207449913
1.08008947000000 1.85992539000000 103.00000000000000  3977.34581512212799
0.97785585000000 1.91280873000000 111.03851283000000  3978.22606711089611
0.92468287000000 1.75484131000000 125.35505808000001  3983.96186023950622
0.95368370000000 1.54998671000000 123.94170559000000  3984.33948539197399
1.13316583000000 1.68888476000000 103.00000000000000  3988.20196564495609
0.86394863000000 1.79871329000000 108.65361366000000  3989.05353097617581
0.97699101000000 1.51715588000000 113.39330241000000  3989.20329301059201
0.96446195000000 1.80212410000000 123.59488253000001  3992.07006248831703
1.06944173000000 1.87678448000000 103.00000000000000  3998.40491676330612
0.95226016000000 1.55763123000000 125.11091141999999  4000.55901332199619
0.87524337000000 1.85475531000000 103.00000000000000  4001.82158839702606
1.12648979000000 1.75667036000000  99.19608368999999  4001.96090176701500
1.05617626000000 1.89449357000000 103.00000000000000  4001.97425661981106
1.09150627000000 1.70968791000000  86.50364623000000  4003.26094473898411
0.88770463000000 1.65950499000000  85.60148392000001  4010.03841294348194
0.96446195000000 1.85690574000000  78.58764502000000  4011.82069508731411
1.08156903000000 1.84391462000000 106.94811811000000  4011.96903696656182
0.93088137000000 1.86649450000000 116.12415772999999  4015.74807013571308
1.01523126000000 1.68888476000000 127.72846470000000  4016.94795310497284
0.96446195000000 1.70405028000000 129.14285103000000  4017.05911320447922
1.07891021000000 1.66892582000000  86.51432283000000  4018.42961938679218
0.86557499000000 1.79023416000000  89.32822487000000  4019.30378714203789
0.86379985000000 1.78526920000000  89.72166368000001  4021.00561334192798
0.97205709000000 1.93319764000000  84.77203840999999  4021.81134527921722
1.02543039000000 1.63974540000000 127.25566865000000  4024.69089052081108
0.87830273000000 1.80107747000000 114.46995367000000  4025.08549575507595
0.85535239000000 1.71848460000000 113.76205569000000  4029.05808591842697
1.03315382000000 1.68888476000000  81.14705787000000  4029.21288278698921
1.01330633000000 1.92418074000000 106.31887492000000  4032.05419425666287
1.13418866000000 1.68397428000000 103.00000000000000  4038.73198635876179
1.06662633000000 1.76572651000000 119.17844071000000  4039.82967524230480
1.12340839000000 1.68888476000000 110.92876769999999  4040.48565708100796
0.86859541000000 1.84140751000000  94.97153621000000  4041.62563538551285
0.96446195000000 1.89046522000000 114.89592207000000  4045.45121070742607
1.08451071000000 1.85646757000000 103.00000000000000  4054.99004843831108
0.95880074000000 1.51267584000000 108.90390257000000  4055.37504786253021
0.86689550000000 1.83986736000000 100.22374524000000  4055.43938164413021
0.89706851000000 1.86807757000000 110.64617050000000  4058.30063539743378
1.10606892000000 1.82251706000000  97.32635594000000  4060.35873676836491
0.86702634000000 1.78178851000000  87.99729189000000  4062.43933665752411
1.07788934000000 1.57564190000000  98.49180848000000  4063.77638128399803
1.10769901000000 1.81308031000000 103.00000000000000  4065.07872822880699
1.11602793000000 1.64276992000000 112.61172508999999  4068.86210212111519
1.04202770000000 1.91333973000000 103.00000000000000  4069.83701190352394
0.86992111000000 1.74984500000000 117.18788121999999  4070.24711804091885
0.96446195000000 1.74653523000000  77.32299492999999  4070.95465214550495
0.96446195000000 1.89634363000000 114.25174619000001  4075.55892367660999
0.84254157000000 1.66364175000000 103.00000000000000  4079.01309719681694
0.96446195000000 1.87528577000000 117.01102064000000  4081.19613949954510
0.96446195000000 1.66779931000000  80.09511065000000  4081.85883226990700
1.05865099000000 1.66956579000000 124.24062977000000  4085.37910960614681
1.10668410000000 1.68888476000000  89.56651020000000  4087.45874945819378
1.01399488000000 1.77988908000000  77.91799695000000  4088.30355145037220
0.96446195000000 1.57329739000000 127.31866451000000  4088.87801812589214
0.96446195000000 1.95351759000000 103.00000000000000  4092.68643739819481
0.96248277000000 1.95343934000000 103.00000000000000  4093.25738336145878
0.84199590000000 1.67615547000000 105.57495003000000  4095.05662181973503
1.11677856000000 1.64122080000000 112.54441222000000  4097.67246502637863
0.97586149000000 1.61752531000000  83.69775863000000  4097.90940144658089
0.94835395000000 1.53702668000000  95.90166125000000  4098.59343607723713
1.11796192000000 1.69531055000000  91.81026730000001  4100.19269075989723
0.86033074000000 1.81155326000000 104.60998346000000  4107.00453090667725
1.03519248000000 1.74233728000000  79.35487187000000  4111.02363814413457
1.02632760000000 1.92991572000000 103.00000000000000  4115.82464943826199
1.11803950000000 1.78472117000000 104.76112237000000  4120.39304159581661
1.00358453000000 1.95557797000000  92.80836248000000  4122.37799139320941
0.90434404000000 1.91472975000000 103.00000000000000  4123.44735597074032
0.88036275000000 1.79286063000000 116.51139572000000  4125.00143523514271
0.92133715000000 1.93436674000000 103.00000000000000  4125.71457007527442
0.94654078000000 1.52684659000000 119.51771846000000  4126.06682728231044
1.13503111000000 1.68888476000000 105.81038184000001  4126.16658021509556
0.96446195000000 1.96618249000000  96.91808329000000  4126.30166725814342
0.85570239000000 1.64622548000000 116.41460080000000  4126.89043417572975
0.86013787000000 1.68888476000000 117.84620199000000  4129.02309900522232
0.91598515000000 1.89219798000000 111.33687401000000  4131.70552168786526
0.92403158000000 1.89718061000000 111.81065731000000  4133.62858538329601
0.94408794000000 1.87973969000000 116.12160149000000  4134.55687789618969
1.07607388000000 1.87397928000000 103.00000000000000  4136.64437465369701
0.97609062000000 1.58885122000000  86.63189192000000  4139.69468080997467
0.98083238000000 1.93739409000000  84.66755784999999  4141.13434596359730
0.88026357000000 1.54696351000000 106.12932309000000  4141.50424318015575
1.01613841000000 1.93635987000000 103.73442546000000  4142.12389740347862
0.99231356000000 1.72590263000000 128.20808317999999  4145.68410423398018
0.96446195000000 1.68888476000000 130.05025126000001  4146.44137609004974
0.86121984000000 1.57626066000000 105.42937636000001  4147.25390473008156
1.03749769000000 1.89785147000000 108.78111653000001  4148.95003148913383
0.95323920000000 1.68888476000000 130.01007458000001  4151.31866131722927
0.84383160000000 1.73583738000000 103.00000000000000  4153.08814318478107
1.00469510000000 1.91269810000000 110.66474139000000  4153.27400748431683
0.93115658000000 1.94383492000000 103.00000000000000  4157.34784200787544
1.02026238000000 1.93961815000000 101.92638682000000  4160.72609525918961
0.96446195000000 1.51771113000000 116.63253236000000  4164.60968850553036
1.04253991000000 1.92721125000000  97.39965537000000  4166.31447760760784
1.09632525000000 1.74819490000000 116.03792975000000  4168.29786564409733
1.12818834000000 1.68888476000000 110.34425204999999  4168.30134868621826
0.97758932000000 1.51155580000000 108.78356934000000  4169.93796455860138
0.97098424000000 1.89475922000000 115.07613945999999  4170.36494518816471
0.97611193000000 1.82369116000000  76.95897839000000  4174.65515011548996
0.98286506000000 1.94195867000000 106.80011775000000  4178.56367571651936
0.89255383000000 1.53838775000000 103.00000000000000  4181.78868517279625
0.96446195000000 1.59301542000000 129.18693825000000  4183.47391980886459
1.05897994000000 1.68888476000000 124.36787443999999  4184.34397409856319
0.97205639000000 1.65667596000000 130.60901512000001  4187.43444801867008
0.94774520000000 1.51540851000000 103.51193752000000  4187.91656275093555
1.05930012000000 1.68888476000000 124.34191075000000  4188.40588527917862
0.97613946000000 1.61109100000000 129.87624413000000  4189.18940116465092
1.07733547000000 1.67735560000000 122.14910976000000  4191.23620659112930
0.96446195000000 1.96771878000000  98.27576206000001  4193.04207521677017
1.08040481000000 1.56645734000000 101.25534473000000  4200.24417683482170
0.96446195000000 1.80711507000000 124.04118440000001  4200.95918175578117
1.05385108000000 1.71665958000000 124.17881079000000  4201.36215308308601
0.97656742000000 1.93358194000000 109.04372386999999  4204.98869100213142
0.96446195000000 1.88818202000000  79.29091604000000  4206.97259196639061
1.12235995000000 1.61685676000000 104.38521348000000  4211.56589625775814
0.96446195000000 1.68888476000000  78.69346734000000  4212.09513846039772
1.01328076000000 1.91037766000000 110.62023033000000  4212.34189139306545
1.10154522000000 1.83491565000000 103.00000000000000  4214.67831324040890
1.01735141000000 1.68888476000000  79.70070982000000  4216.82350844144821
1.13887876000000 1.68350225000000 102.21176779000000  4218.29606278240681
0.88440024000000 1.59163517000000  91.73162635000000  4219.92389567196369
1.00132935000000 1.68888476000000 129.32976651000001  4220.39297164976597
0.92176803000000 1.62902604000000 129.37228902999999  4221.84136991202831
0.96446195000000 1.96460357000000  89.80227257999999  4222.94512957334518
1.12380276000000 1.61928432000000 105.56774804000000  4223.10460309684277
1.03598632000000 1.73630174000000  79.12329278000000  4225.78746308386326
1.13939518000000 1.68733424000000 103.00000000000000  4227.70813672244458
0.96251256000000 1.52543411000000  98.34835566000000  4228.50041612982659
0.98553507000000 1.96906321000000  96.31757931999999  4229.57001632452011
0.97867809000000 1.67045815000000  79.55162561000000  4232.01214325428009
0.93823238000000 1.91937570000000  82.96274821000000  4235.34054367244244
0.90199343000000 1.53929200000000  99.33548926000000  4237.45664316415787
0.87502314000000 1.86577703000000 103.00000000000000  4237.79721908271313
0.96446195000000 1.95979899000000 103.00000000000000  4239.04911975562572
0.84799788000000 1.74694361000000  94.33034859999999  4240.26479166746140
0.96409184000000 1.96982945000000  92.00000353000000  4243.09571397304535
0.91850273000000 1.51663016000000 109.83795823000000  4248.60685646533966
0.92953400000000 1.94643442000000 103.00000000000000  4250.28572893142700
0.89643335000000 1.53611864000000 101.93286139000000  4253.81444194912910
1.13402707000000 1.75174372000000  99.15658071999999  4254.55355253815742
1.04457735000000 1.75096998000000 123.77062405000000  4255.55240318179131
1.04594156000000 1.68888476000000 126.08294728000000  4256.67838920652866
1.09518122000000 1.84435486000000 104.46134198000000  4256.90806832909584
0.97294415000000 1.71569905000000  77.51474555999999  4257.23527112603188
0.95885000000000 1.68888476000000  78.62352204000000  4260.84906400740056
0.83946195000000 1.68888476000000 103.00000000000000  4263.33090834319592
0.96446195000000 1.96240096000000 102.46064690000000  4269.75467659533024
1.00119359000000 1.79931818000000  76.84216220000000  4270.71532373130322
1.01581079000000 1.92955766000000 107.08567064000000  4272.63293388485909
1.08513834000000 1.86714605000000 103.00000000000000  4274.01087017357258
0.96446195000000 1.74290667000000  76.78981243000000  4276.87056720256805
0.96446195000000 1.96429512000000  88.76247669000000  4279.02847948670387
1.14070352000000 1.68888476000000 103.00000000000000  4279.38412828743458
0.96446195000000 1.81460882000000 123.80771860999999  4282.03297165036201
0.98388256000000 1.51546862000000 103.00000000000000  4283.45754992961884
0.96446195000000 1.86760330000000  77.89074191000000  4283.63634920120239
0.96446195000000 1.51381910000000 103.00000000000000  4286.98030436038971
0.94639107000000 1.86659692000000 118.56108030000000  4287.69245599210262
0.83919598000000 1.68888476000000 103.00000000000000  4289.05611288547516
0.96446195000000 1.59005736000000  85.96649422000000  4294.14912790060043
0.86310978000000 1.83872052000000 101.59510212000001  4294.79695573449135
1.13232874000000 1.75549313000000  96.47373082000000  4295.57765801250935
0.96446195000000 1.84448543000000  77.02923817999999  4296.15009662508965
1.04343353000000 1.90948671000000 106.53409431999999  4297.02632842957973
0.84580345000000 1.61806484000000 103.00000000000000  4298.36234138906002
1.10686106000000 1.83314836000000 101.48451061000000  4298.55248802900314
1.10114160000000 1.66777644000000  88.58016661000001  4298.99258746206760
1.09089115000000 1.57640467000000 113.19680756000000  4306.48574407398701
0.89015336000000 1.90043741000000 103.00000000000000  4308.63068173825741
0.89458101000000 1.53696658000000 116.02467557000000  4310.38784047961235
0.92038147000000 1.76006740000000 125.98635154999999  4311.27729187905788
1.00676208000000 1.68888476000000 129.37760925000001  4314.45755854249001
0.96446195000000 1.97003364000000  90.34502268999999  4317.48467408120632
0.96446195000000 1.59322078000000  85.51935980000000  4319.14634022116661
0.88555917000000 1.89835839000000 100.28969001999999  4322.39769418537617
1.10496374000000 1.72624938000000 116.57449790000000  4323.01168636977673
0.94130620000000 1.68888476000000  78.85506965000000  4326.59712027013302
1.05278139000000 1.68511956000000 125.74300122000000  4328.77485127747059
1.12059629000000 1.80123338000000  95.70804694000000  4330.16641466319561
0.95468824000000 1.68888476000000 130.68134126999999  4330.17499378323555
0.99593678000000 1.51680552000000 103.00000000000000  4331.60869693756104
0.95459184000000 1.68888476000000  78.49233018000000  4333.42835836112499
0.84606889000000 1.68888476000000  94.03081616000000  4335.26984409987926
0.86314758000000 1.74952374000000 116.56741312000000  4336.29425109922886
0.96446195000000 1.68888476000000 130.75376883999999  4340.02077586948872
1.10163119000000 1.80553301000000 110.35354336000000  4342.15569154918194
1.13470737000000 1.68888476000000  95.57027194000000  4344.09396426379681
0.90780650000000 1.55932604000000  92.96044515000000  4344.43374185264111
0.96446195000000 1.81553778000000  76.27630762000000  4345.36991935968399
1.01505788000000 1.95952542000000  93.50227457000000  4350.21587757766156
0.92788090000000 1.94657525000000 103.96881979000000  4350.97517289221287
1.08550027000000 1.87045588000000 103.00000000000000  4354.23036696016788
0.99070687000000 1.81459173000000  76.40623653999999  4354.85047401487827
1.04803689000000 1.73097869000000  79.68051875000000  4357.25673760473728
0.96446195000000 1.96693406000000 102.20408247000000  4357.98942673206329
0.98812359000000 1.51240338000000 104.70748755000000  4359.79358202219009
0.90651856000000 1.52554842000000 103.00000000000000  4360.81775481998920
0.85001924000000 1.68946921000000  91.88921550000001  4361.20949234068394
0.96446195000000 1.89991301000000  79.31183765000000  4361.48724573850632
1.09935074000000 1.71089806000000  85.98513181000000  4361.93433247506618
0.95366968000000 1.96319179000000 103.00000000000000  4365.11993701756001
1.14033294000000 1.66520446000000 101.89092581000000  4366.30150952935219
1.02054139000000 1.52233825000000 114.08559120000000  4373.61389867961407
1.06154553000000 1.91446292000000  98.10516741000001  4378.71020399034023
1.13728471000000 1.68888476000000 108.70486901000000  4381.27312025427818
1.00477266000000 1.81243143000000 123.29474338999999  4388.07500590384007
1.11101581000000 1.82554245000000 103.00000000000000  4389.20105357468128
1.03778593000000 1.74931574000000 125.08568319000000  4391.37166069447994
0.83971918000000 1.68888476000000 107.93176679000000  4392.35979585349560
0.96446195000000 1.96608040000000 103.00000000000000  4395.25120410323143
0.83790300000000 1.69212330000000 103.00000000000000  4397.23341706395058
1.14332888000000 1.71302465000000 101.14239745000000  4398.20313540101142
0.95385636000000 1.96473422000000 103.00000000000000  4400.08832202851772
1.11926035000000 1.64302547000000  93.97894635000000  4401.86495119333267
1.05324102000000 1.67182965000000  82.22707994000000  4402.64734578132629
1.01102704000000 1.73251539000000 128.00465073999999  4409.76643529534340
0.87629303000000 1.54880567000000 103.00000000000000  4410.78283922374158
1.04921033000000 1.74786031000000  79.27666447999999  4411.70384314656258
1.09178301000000 1.85931616000000 104.22199086000001  4417.44015234708786
0.88271455000000 1.68888476000000  83.48617159000000  4418.92626827955155
1.12402639000000 1.70193065000000 113.64446388000000  4420.14462251961231
1.13575485000000 1.72242615000000 108.44398936000000  4420.79698072373867
0.86016110000000 1.83314900000000 103.00000000000000  4424.37497107684612
1.02474412000000 1.94477476000000 103.00000000000000  4426.39519116282463
0.96864354000000 1.71446126000000 130.24411017000000  4428.89023235440345
1.13445689000000 1.63378895000000 103.00000000000000  4430.29125098884106
1.13427741000000 1.77088637000000  98.92844655000000  4431.20384514331818
0.96446195000000 1.72953081000000  76.66885764000000  4431.87751498818398
1.11470641000000 1.63368807000000  93.74518562999999  4432.89054839313030
1.11991535000000 1.63301569000000  95.20788473000000  4436.97264730930328
0.96446195000000 1.63284822000000 131.52974909000000  4444.29375733435245
0.96446195000000 1.72594208000000  76.72700685000000  4446.74430401623158
0.99334366000000 1.83202188000000 122.52758008000001  4460.71642419695945
1.13525888000000 1.68888476000000 110.63419905000001  4463.05240958929062
0.90467666000000 1.59586860000000  87.51889201000000  4464.72300547361374
1.09294761000000 1.87275031000000  97.80942755000000  4466.68650691211224
0.96446195000000 1.68888476000000  78.00000000000000  4470.51294341683388
0.96446195000000 1.68888476000000  77.98994974999999  4476.35473722219467
0.87127523000000 1.83790434000000 110.06466500000001  4478.01911275088787
1.05626567000000 1.68888476000000  81.32877607000000  4483.84895776212215
1.01251130000000 1.53981315000000  95.15002118000000  4487.15587152540684
1.05175279000000 1.68888476000000 126.44638232000000  4488.68391211330891
0.96788532000000 1.79892334000000  75.65123319999999  4490.40584515035243
0.84475849000000 1.64419332000000  96.54339589000000  4497.67661069333644
0.94935497000000 1.52428066000000  97.37733703000001  4498.04177927970886
1.12812877000000 1.79232834000000 103.00000000000000  4509.94930072128773
0.89556088000000 1.74432250000000  80.00259714000001  4510.34232142567635
0.96446195000000 1.93183549000000 111.72876058999999  4512.42685431241989
1.13042999000000 1.78901873000000  96.96732443000001  4515.93385066092014
1.04309505000000 1.73078444000000 126.02694766000000  4523.76082728803158
1.03211548000000 1.52044991000000 108.14021535000001  4525.54276397824287
0.96446195000000 1.94789776000000  82.97800798999999  4526.20641042292118
0.88791302000000 1.72634313000000  81.23880593000000  4527.08361749351025
0.86503093000000 1.74701941000000  85.39570586000001  4533.66835743188858
0.96446195000000 1.68888476000000 131.45728643000001  4544.31940872967243
0.96446195000000 1.97236181000000 103.00000000000000  4544.87543016672134
1.14457295000000 1.68888476000000 106.78516782000000  4546.44814887642860
0.92223587000000 1.85902498000000 118.90563813000000  4550.65586954355240
0.96446195000000 1.84292580000000  76.07738558000000  4550.88122609257698
0.94041230000000 1.68982108000000 131.10242088000001  4551.63748994469643
1.05443662000000 1.70341903000000  80.36593439000001  4552.25919549167156
1.14554771000000 1.71055205000000 105.26061030000000  4552.27344310283661
1.11084821000000 1.84260401000000  99.27283504000000  4553.99654397368431
0.96446195000000 1.98523692000000  94.98372716999999  4554.92364381253719
0.97835144000000 1.81222538000000 124.98684498000000  4556.96978744864464
1.00621403000000 1.89924180000000 115.16883475000000  4560.76521909236908
1.00804138000000 1.68888476000000  78.35205805000000  4560.83830867707729
0.92364488000000 1.81897367000000  77.26882094000000  4561.24415425956158
1.07550274000000 1.56802859000000  96.30612995000000  4562.00998161733241
1.14452138000000 1.68888476000000  97.86082709999999  4562.93260994553566
0.96446195000000 1.71674242000000  76.68789180000000  4564.28252331912518
0.85585193000000 1.76421002000000  88.42192764000001  4566.82910758256912
1.10869969000000 1.64862353000000 118.45506412000000  4567.84695553779602
0.96135897000000 1.68888476000000  77.75978191000000  4567.98398885130882
1.06642397000000 1.53943137000000 105.74761789999999  4568.97070129215717
0.90405928000000 1.51982564000000 104.82340985000000  4569.81645083427429
1.14824121000000 1.68888476000000 103.00000000000000  4579.58466920256615
0.96446195000000 1.85490990000000 121.55825722000000  4582.87784197926521
0.99729336000000 1.94130767000000 109.49657852000000  4589.59218692779541
0.96446195000000 1.97543082000000 102.66338502000001  4591.72060668468475
0.96268324000000 1.97371236000000 103.23222697000000  4596.54305280745029
0.97921197000000 1.51075456000000 102.23074069000000  4602.88324649631977
0.86352477000000 1.60602658000000  92.87215487000000  4606.04140827059655
1.02413891000000 1.96276488000000  98.16915430000000  4607.56028810143471
0.96446195000000 1.79762817000000  75.34017132000000  4609.52758754789829
1.00767092000000 1.86090834000000 119.78527544000001  4619.38782110810280
0.87081774000000 1.87946010000000  95.41278135000000  4620.88490846753120
1.11485811000000 1.83122617000000 103.00000000000000  4624.23431046307087
0.87406502000000 1.78575576000000 118.24182426000000  4624.88626505434513
0.84312214000000 1.62837974000000  98.61945466000000  4624.95818933844566
1.12982827000000 1.80061777000000  96.96597502000000  4628.05962707102299
1.08818948000000 1.66514557000000  85.40870767000000  4628.20474691689014
0.83550419000000 1.68888476000000 105.78786158000000  4632.90012042224407
0.96190142000000 1.84247461000000  75.79048318000000  4637.40296585857868
1.08327736000000 1.89695225000000  97.77603639000000  4639.37327204644680
0.96446195000000 1.93755577000000  80.98983577000000  4641.96248257160187
1.03256918000000 1.68888476000000 128.78589657000001  4643.39018039405255
1.12218988000000 1.81622840000000 103.00000000000000  4643.74381057918072
0.98464747000000 1.89477397000000 117.38488509000000  4643.79591029882431
0.86991408000000 1.87159018000000 103.24983216000000  4644.37467294931412
0.96446195000000 1.63412477000000 132.27832920000000  4648.05506151914597
0.96446195000000 1.50753769000000 103.00000000000000  4651.03858146071434
1.06157966000000 1.58653248000000  90.27188219000000  4653.92316561937332
0.96446195000000 1.94067014000000  81.20851911000000  4654.65313722193241
1.13366511000000 1.78775470000000  95.97653772000000  4658.51862455904484
0.95972890000000 1.50659304000000 116.06410744000000  4658.70310421288013
1.01936210000000 1.69502431000000 129.70787515999999  4662.25979144871235
0.96446195000000 1.88832267000000 118.45403142000001  4664.18756660819145
1.12219170000000 1.81763947000000 103.00000000000000  4664.48160424828529
0.96446195000000 1.77285938000000  75.26567574000001  4667.02965384721756
1.06121979000000 1.53731147000000 103.00000000000000  4668.14465411007404
1.13241962000000 1.79233598000000 103.00000000000000  4670.89992840588093
0.87512818000000 1.72563298000000 123.08250515000000  4671.27706019580364
1.04450625000000 1.62512523000000  84.11028075000000  4676.00890347361565
0.96446195000000 1.63224845000000 132.36841777000001  4681.50515685975643
0.96446195000000 1.51634616000000  98.75516433000000  4682.60363921523094
0.85832107000000 1.73513719000000  86.54823659000000  4682.62704765796661
0.93420461000000 1.96803424000000 103.00000000000000  4691.86537055671215
0.96446195000000 1.91202517000000 115.74139980000000  4700.89494664967060
0.96446195000000 1.97864322000000 103.00000000000000  4701.74826531112194
0.94317437000000 1.97034465000000 103.94112446000000  4704.78181385993958
1.05138634000000 1.57899287000000  90.11933016000000  4705.08331613242626
0.97730783000000 1.98572440000000  89.58444090000000  4709.29774256050587
1.09663800000000 1.84451194000000 108.88145528000000  4710.55528503656387
0.94818479000000 1.64816313000000  79.89103439000000  4710.59800453484058
1.10474598000000 1.85587660000000 103.00000000000000  4711.06063280999660
1.12156044000000 1.68888476000000 116.59925373999999  4712.54023620486259
1.11913482000000 1.71959393000000 116.14950235000001  4714.56366884708405
1.03731324000000 1.94628807000000 103.00000000000000  4714.61114330589771
0.98462819000000 1.84080533000000 123.17376623000000  4715.27236293256283
1.06858840000000 1.62876337000000 125.26656952000000  4716.93955168128014
1.11437647000000 1.58323618000000 103.00000000000000  4723.44522999226956
1.00739326000000 1.93870089000000 110.07015895000001  4725.67089721560478
0.95310614000000 1.51445967000000 120.10642616000000  4728.27020491659641
0.84584608000000 1.74668239000000  91.38708846000000  4728.94636391103268
0.90073321000000 1.93728357000000 102.43606668000000  4730.06147342920303
1.11190450000000 1.58357621000000 100.94661736000000  4732.12488964200020
0.85326279000000 1.57259831000000 109.02012080999999  4732.33063897490501
0.99077196000000 1.70652497000000 131.14321121000000  4738.37323585152626
0.96446195000000 1.68888476000000 132.16080402000000  4740.45484761893658
1.14672122000000 1.74840861000000 103.00000000000000  4742.81264570355415
0.96446195000000 1.52314447000000  96.22526525000001  4747.00462318956943
0.96446195000000 1.68888476000000  77.28643216000000  4747.83429293334484
1.07146349000000 1.53886718000000 110.04337978000000  4748.46023534238338
1.13533499000000 1.79560960000000  99.25513728999999  4753.50275625288486
1.15262349000000 1.69221343000000 103.00000000000000  4753.77992908656597
0.96446195000000 1.95351512000000 109.73905212000000  4768.13607387244701
0.85823460000000 1.60978510000000 119.86867500000000  4772.80423155426979
1.12230376000000 1.68888476000000 116.82021688000000  4773.11299574375244
0.96446195000000 1.56458290000000 129.41587978000001  4774.19343113899231
0.90432207000000 1.51933231000000 116.37920160000000  4774.51920178532600
0.84846908000000 1.80941828000000 103.00000000000000  4782.85410095751286
0.98241393000000 1.80377314000000  74.81220682999999  4782.95104545354843
1.12329372000000 1.68888476000000  88.97995353000000  4785.19987623393536
0.96446195000000 1.63298294000000  80.51265234000000  4786.84142300486565
0.98446751000000 1.66639902000000 132.40005676000001  4787.75001780688763
0.96446195000000 1.53667837000000 125.85125085999999  4787.86244399845600
1.07003308000000 1.66353236000000 125.87039832000001  4794.46819347143173
0.84144123000000 1.66464174000000  94.43679160000001  4795.24429588019757
0.96125298000000 1.62224943000000 132.62327922000000  4795.65704393386841
0.84799138000000 1.73987058000000  89.71899457000001  4797.24759709835143
0.91584155000000 1.72612704000000  77.59302488000000  4802.28077898919582
0.95392093000000 1.68888476000000 132.32762170999999  4804.59318394958973
0.96446195000000 1.68977182000000  77.09021777000000  4804.64679750800133
1.15392764000000 1.69033473000000 102.88277970000000  4807.28788793087006
1.13138896000000 1.68888476000000  90.68344775000000  4809.13669356703758
1.08392023000000 1.89493029000000 103.00000000000000  4810.14400614798069
0.86078179000000 1.85634881000000 102.20088067000000  4813.69943258166313
0.94068676000000 1.96832048000000 105.48292383000000  4816.97522670030594
1.04762733000000 1.72503358000000 126.99752300000000  4824.64239311218262
1.07064485000000 1.55922701000000  95.97279245000000  4825.60173876583576
1.15379119000000 1.68888476000000 104.40590561000000  4825.66229058802128
1.15003807000000 1.68888476000000 107.87371174000000  4827.76895436644645
1.00572056000000 1.72583873000000 130.09393186000000  4834.32372376322655
1.12544877000000 1.82753628000000  98.26917199000000  4834.95105674862862
1.11474522000000 1.68888476000000 118.82151225000000  4835.83309607207775
1.07651699000000 1.68888476000000  82.00137447000000  4836.15392956137657
1.14389702000000 1.68888476000000 110.99925152000000  4840.39552868902683
1.06044084000000 1.68888476000000  80.52528286000000  4840.61171407997608
1.12541541000000 1.70387862000000 116.15951927000000  4840.68976773321629
1.09657483000000 1.68759037000000  84.36627734000000  4843.46127229928970
1.10190522000000 1.86806760000000 103.00000000000000  4847.13379348814487
0.96446195000000 1.98492462000000 103.00000000000000  4848.02842289209366
0.83754513000000 1.75589445000000 103.00000000000000  4848.23467797040939
1.01485965000000 1.63150709000000  81.36078366000000  4850.85063295066357
0.96446195000000 1.96003073000000 109.20973479000000  4853.16059318184944
0.96446195000000 1.51912909000000  96.84656330000000  4853.55337986350060
0.96446195000000 1.61484687000000  81.82902726000000  4858.44104678928943
1.14030710000000 1.63157251000000  99.17026663000000  4860.24632050096989
1.00895247000000 1.96006007000000 106.74451146000000  4865.77173186838627
0.95745945000000 1.98445482000000 103.00000000000000  4867.42658522725105
1.03673905000000 1.62962666000000 129.40468801000000  4870.26569028198719
0.96446195000000 1.54990379000000  89.84228435999999  4870.53783838450909
0.83299217000000 1.71436778000000 103.00000000000000  4872.58612415194511
1.02654648000000 1.97453086000000  96.14128350999999  4874.63398219645023
0.89271322000000 1.57522003000000  90.19153282000001  4883.23839733004570
1.12669948000000 1.68253807000000 116.58268992000001  4886.21211102604866
1.05860279000000 1.70250808000000  79.64634081000000  4886.67442402243614
1.14389312000000 1.62726960000000 103.00000000000000  4890.35580208897591
1.12150703000000 1.69680134000000  87.64749282000000  4899.95927236974239
0.83316888000000 1.70105598000000  98.91040378000000  4901.79917185008526
1.08354908000000 1.68888476000000  82.48738871000000  4906.26734916865826
1.14690759000000 1.67297593000000  95.73112395000000  4907.52206392586231
1.15528425000000 1.71011579000000 104.41048748999999  4910.63978759944439
0.83165829000000 1.68888476000000 103.00000000000000  4911.99528221786022
1.11495342000000 1.85588294000000  97.45764629000000  4918.26033988595009
1.05163678000000 1.68888476000000  79.59276147000000  4923.96706056594758
1.14948000000000 1.68888476000000  95.55977799999999  4926.74776439368725
1.11111180000000 1.71851477000000  85.00652104000000  4928.35446850955486
1.12294726000000 1.83220819000000 103.00000000000000  4937.70510527491570
0.84694522000000 1.81194650000000 103.00000000000000  4937.96204486489296
1.15432535000000 1.72281017000000 104.79951274000000  4939.04099150002003
0.83693024000000 1.68888476000000 111.82067653000000  4939.60711035132408
1.07877269000000 1.68176562000000 125.21985208000000  4940.68112984299660
0.89703367000000 1.90447339000000 111.02877453000001  4945.04896716773510
0.99041383000000 1.67265291000000  77.68768799999999  4945.72598907351494
0.96446195000000 1.68888476000000 132.86432160999999  4946.51623702049255
0.89179638000000 1.53971135000000  96.91922335000000  4952.48540081083775
0.96446195000000 1.49731116000000 107.88848541000000  4954.53834569454193
0.85030474000000 1.60312517000000  95.96791131000001  4957.06109964847565
1.09858295000000 1.72253483000000  82.91979077000001  4959.92177540063858
1.13413661000000 1.66482425000000 115.18199276999999  4963.77366550266743
1.07400071000000 1.91590042000000 103.00000000000000  4967.14185531437397
1.15771371000000 1.68888476000000 103.31226945000000  4967.61044462025166
1.15173867000000 1.69662375000000  95.80542968000000  4969.55204504728317
1.01873845000000 1.95155775000000 108.26068551000000  4971.91488757729530
1.01183590000000 1.59689927000000 130.58352998999999  4972.17915576696396
0.97206722000000 1.63360213000000  79.97054244000000  4978.15876662731171
0.94285033000000 1.65849844000000 133.21189498999999  4978.66420693695545
0.85264197000000 1.77711355000000 113.76817602000000  4980.99445340037255
0.84111414000000 1.73872724000000  91.99671603000000  4982.37649607658386
0.96446195000000 1.91695567000000  77.47076962000000  4982.38230140507221
1.13757876000000 1.68888476000000 114.32876971000000  4986.20993161201477
1.06169368000000 1.52966182000000 113.13364464000000  4986.56130692362785
0.96446195000000 1.68888476000000 133.00000000000000  4994.76156084239483
1.09469203000000 1.68888476000000 123.08464467000000  5000.24317300319672
0.86817477000000 1.78156383000000 118.95965132000001  5008.21083095669655
1.07909723000000 1.90894639000000 103.65650205999999  5014.70828683674335
1.13176151000000 1.82308498000000  99.81703084999999  5015.62272453308105
0.85244605000000 1.71317156000000  87.02231770000000  5016.55833290517330
1.00507197000000 1.70363069000000  76.38613663000000  5020.87297242879868
0.98321250000000 1.91752299000000 116.64006211000000  5023.93807475268841
0.96446195000000 1.68888476000000  76.58291457000000  5024.01108147203922
0.96446195000000 1.50125628000000 103.00000000000000  5035.85914200544357
1.05183713000000 1.68888476000000 128.55996497999999  5037.61456120014191
0.93054255000000 1.57616086000000  86.26796383000000  5049.30604086816311
0.96891811000000 1.68888476000000  76.48406022000000  5053.09904789924622
0.96446195000000 1.92521704000000 116.05392596000000  5065.44280295073986
1.03893558000000 1.93610092000000 108.86141675000000  5067.66184441745281
1.11204216000000 1.86143867000000 103.00000000000000  5069.04368038475513
1.14108870000000 1.61777182000000 100.10761302000000  5071.93984659016132
0.87459062000000 1.64001929000000 126.73021036999999  5073.81705528497696
0.86820208000000 1.68888476000000  83.76500024000001  5074.01130820810795
0.91799117000000 1.69525437000000  77.76953080000000  5077.09114204347134
0.84914757000000 1.82321586000000 104.70841960000000  5077.33481051027775
0.90323704000000 1.95461660000000 102.58318335000000  5077.55248692631721
1.00474460000000 1.69655413000000  76.52737396000001  5083.58536151051521
0.84390889000000 1.80701218000000 103.00000000000000  5083.84107179939656
0.94001995000000 1.86651069000000 121.94819975999999  5086.32828709483056
0.83350734000000 1.64235792000000 109.68919637000000  5092.55329005420208
0.98666396000000 1.86527611000000  74.78394259000000  5104.25964072346687
0.99456759000000 1.68888476000000 132.72623872000000  5108.13806511461735
0.96446195000000 1.88437792000000 120.97290897000001  5108.44148454070091
1.14926831000000 1.77916458000000  98.82882819000000  5113.03782263398170
0.86647903000000 1.75196283000000 121.34589157000001  5113.30917067825794
0.96446195000000 1.98760759000000 105.35375874000000  5114.59357006847858
1.14413881000000 1.79564803000000  97.55311591000000  5115.53332452476025
0.99952293000000 1.67002787000000 132.88654872999999  5117.11329799890518
0.96446195000000 1.64889995000000 133.96319689000001  5117.82228243350983
1.14236015000000 1.61078234000000 103.00000000000000  5118.14559671282768
0.84743824000000 1.57268646000000 106.20928462000001  5121.20617581903934
1.15687354000000 1.65110123000000 103.00000000000000  5124.48970946669579
0.83012804000000 1.71477944000000 103.00000000000000  5125.44831326603889
1.14112362000000 1.62927644000000  96.84759129000000  5125.55305737257004
1.06422159000000 1.65739063000000 127.91635847000001  5127.32441136240959
0.96446195000000 1.52081161000000  95.01557515000000  5134.43919944763184
0.84332436000000 1.80143336000000  94.35324552000000  5136.64679069817066
1.12868629000000 1.68888476000000  88.14737823999999  5140.26520995795727
0.84809699000000 1.64947703000000 119.60549116000000  5140.33336351811886
0.83924357000000 1.79178281000000  99.39266338000000  5145.91041003167629
0.96446195000000 1.93280835000000 115.50485363999999  5149.86419013142586
0.82957392000000 1.70886752000000 103.30269019000001  5156.33811092376709
0.96446195000000 1.68888476000000 133.56783920000001  5156.92358982563019
0.83081465000000 1.72951793000000 103.00000000000000  5163.19010320305824
0.96683725000000 1.91427479000000  76.44907225999999  5163.26038654148579
1.10718892000000 1.68888476000000  84.44207053000000  5164.33259223401456
1.08726379000000 1.72017382000000  80.80402411999999  5164.42059503495693
0.98735615000000 1.50948718000000  99.00897094000000  5164.82524017989635
0.83303809000000 1.62733090000000 103.00000000000000  5166.59116479754357
0.89161803000000 1.51343367000000 111.01080044000000  5168.16826495528221
0.96446195000000 1.95088497000000 113.06796911000001  5172.28730915486813
1.14685705000000 1.66140462000000  94.26510406000000  5173.39591173827557
0.90685066000000 1.57136714000000  88.12684019000000  5174.45321610570045
0.97202870000000 1.55112481000000 129.53135997999999  5175.88953004777431
0.96446195000000 1.55266882000000 129.84877700999999  5178.87420998513699
0.86013407000000 1.68888476000000  85.04514593000000  5180.76665584743023
0.83383896000000 1.76028808000000 101.68514227999999  5180.92404200136662
0.96446195000000 1.52932738000000  92.74283651000000  5186.90619742870331
1.16306489000000 1.70532262000000 103.00000000000000  5186.95616173744202
1.07470788000000 1.53467206000000 103.00000000000000  5188.93003898859024
1.05701968000000 1.68888476000000  79.16015136000000  5191.16805367171764
1.16331658000000 1.68888476000000 103.00000000000000  5195.54593545198441
1.10136951000000 1.87242824000000 106.72654529000000  5198.99873417615891
0.96446195000000 1.70005067000000  75.67735221000000  5201.51944674551487
0.84037827000000 1.76883554000000 109.40490668000000  5201.67824150621891
1.14188729000000 1.61036218000000 109.56987303000000  5204.38365504145622
0.94687427000000 1.65361114000000 134.12646303000000  5207.94103309512138
0.96446195000000 1.53833751000000 128.06219781999999  5209.01474653184414
0.83767630000000 1.68888476000000 114.62057077999999  5210.28590135276318
0.96847463000000 1.64761542000000 134.28361452999999  5215.30039745569229
0.84086929000000 1.79230280000000 105.72262447000000  5217.56581693887711
1.01400465000000 1.59475702000000  83.78326085000000  5220.62908349931240
0.92942712000000 1.78301424000000  74.71056093999999  5221.04416076838970
1.06271761000000 1.95087894000000  98.66826687000000  5221.47713455557823
1.00801398000000 1.60021573000000  82.94883844000000  5222.71405206620693
1.03610845000000 1.68458403000000  77.95540214000000  5223.33787889778614
0.94986602000000 1.71184162000000  75.40716523000000  5229.59110365808010
0.85190537000000 1.84657906000000 103.00000000000000  5231.76927626132965
1.12693773000000 1.58998558000000  99.40819336000000  5236.60288113355637
1.13885786000000 1.59889071000000 103.00000000000000  5238.31333577632904
1.14342709000000 1.73996564000000 112.16941839000000  5239.49960197508335
0.93742758000000 1.98187532000000 106.06533991000001  5239.52481517195702
0.93499171000000 1.68888476000000 133.33061556000001  5248.04526896774769
1.16156923000000 1.67876139000000 106.90031690000001  5248.30632369220257
0.85329592000000 1.63504142000000 121.88057676000000  5249.18933746218681
0.93486317000000 1.50031958000000 103.00000000000000  5249.23717279732227
0.96446195000000 1.49306374000000 107.19265715000000  5249.27984331548214
0.85599273000000 1.68888476000000  85.77678535000000  5249.97786404192357
0.86047251000000 1.84419093000000 110.17083943000000  5252.28255109488964
0.83988947000000 1.77332813000000  92.43335324000000  5254.63794374465942
0.89558005000000 1.58925578000000  86.75442993000000  5258.20453104376793
0.94918708000000 1.94256844000000 114.35451749000001  5258.70204818248658
0.87618213000000 1.53000888000000 103.00000000000000  5260.93603929877281
0.96446195000000 1.55895387000000 130.83181943000000  5263.83052060007958
0.96446195000000 1.80800700000000  73.42691347000000  5264.83010910451412
1.07626833000000 1.92421028000000 103.71470078999999  5264.90262921154499
1.09691033000000 1.89672998000000 103.00000000000000  5266.25230154395103
1.14386315000000 1.65187582000000  93.57232721000000  5267.51083037257195
0.82817160000000 1.68888476000000 100.51741613000000  5268.94208307564259
1.16444671000000 1.68888476000000 104.69128691000000  5269.31466123461723
1.15747150000000 1.63982932000000 103.00000000000000  5271.14250247180462
0.96446195000000 1.59484513000000  82.67351841999999  5274.76321378350258
0.96446195000000 1.84181835000000 125.56292558000000  5275.01730695366859
0.95345649000000 1.92241991000000 117.33653743000001  5277.62668463587761
1.02088894000000 1.50572315000000 104.07324513000000  5283.70281009375958
1.08821098000000 1.92039650000000  98.03310985000000  5284.11788703501225
0.83097483000000 1.74253103000000  99.07757795000001  5285.28530651330857
1.07535385000000 1.57315536000000  91.43798552000000  5289.92890590429306
0.85908112000000 1.68888476000000  84.91264730000000  5293.67992828786373
0.84781629000000 1.68888476000000 119.80050747000000  5294.20734830200672
0.89283463000000 1.93676221000000 106.00326975999999  5295.80474562942982
0.96446195000000 1.80738903000000  73.33687184999999  5296.49502238631158
1.04632750000000 1.95825804000000 104.34373686000001  5301.91485364735126
1.01500736000000 1.74579072000000  74.67836370000001  5302.79626178741455
0.96439159000000 2.00112186000000 103.81295115000000  5303.66143964231014
1.14304843000000 1.60327537000000 103.00000000000000  5310.80557359755039
0.95125988000000 1.51991065000000  94.64807209000000  5311.09332828223705
0.96446195000000 2.00376884000000 103.00000000000000  5313.95964708924294
1.16583222000000 1.68888476000000 103.90268790000000  5317.01284976303577
0.95709825000000 2.00366467000000 102.75106198000000  5319.52235385775566
1.05025317000000 1.68888476000000 129.71048633000001  5321.07597082853317
0.96446195000000 1.68888476000000  75.87939698000000  5321.30025157332420
1.12223731000000 1.68888476000000  86.08624879000000  5323.22669346630573
0.99981638000000 1.85987579000000 123.44654495000000  5325.99948188662529
0.96446195000000 1.72323207000000  74.54744024000000  5332.08876606822014
0.98715142000000 1.68888476000000 133.73877092000001  5333.66808508336544
1.05383262000000 1.95621452000000 103.00000000000000  5342.89162118732929
1.09358235000000 1.90525874000000 103.00000000000000  5346.83254590630531
1.10889032000000 1.88819440000000  99.40753691000000  5348.15764817595482
0.96446195000000 1.89970342000000 120.45549549000000  5348.22662445902824
0.95336085000000 1.82953145000000 126.66919387000000  5349.50874568521976
0.97582909000000 1.66528031000000 134.49576510000000  5349.62368166446686
0.93915345000000 1.77176846000000  74.01582639999999  5352.31303121149540
1.14911137000000 1.61580473000000 101.46823834999999  5352.42569480836391
0.96446195000000 1.92605300000000  76.34206801000001  5354.14850509166718
0.96446195000000 1.91921784000000  75.92479295000000  5361.41421179473400
0.91380283000000 1.50440340000000 103.00000000000000  5362.06709115207195
0.94169217000000 1.59213473000000 133.38519198000000  5365.05035087466240
0.83676364000000 1.79136488000000  97.91728508999999  5366.80032339692116
0.96446195000000 1.68888476000000 134.27135677999999  5374.16525875031857
0.97464877000000 1.83505460000000 126.44590817000000  5377.06751137971878
1.12495839000000 1.68888476000000 119.66684979999999  5377.11322021484375
1.15648119000000 1.68888476000000  93.89392067999999  5380.60638064146042
0.96446195000000 2.01215646000000 100.92184482000000  5382.24362944066525
1.01075870000000 1.69098891000000 132.83237789000000  5382.99249015748501
0.96446195000000 1.84638004000000  73.39419085000000  5383.41536714136600
0.96446195000000 1.79771528000000  73.11766201000000  5389.27052861452103
0.87526068000000 1.91759560000000 103.00000000000000  5393.69982656836510
1.05355857000000 1.68888476000000 129.65675612000001  5394.97541907429695
1.13012924000000 1.71538538000000  86.15367829000000  5395.58278118073940
0.82641159000000 1.68888476000000 101.61780215000000  5397.39274966716766
1.16230627000000 1.75150156000000 103.00000000000000  5400.02847647666931
1.08751011000000 1.68888476000000  81.17738022000000  5402.03654733300209
1.13651214000000 1.79591964000000 109.83660251000001  5406.34268116950989
1.14397964000000 1.76998563000000 110.51331891000000  5408.55507300794125
1.03290383000000 1.58094197000000  85.87074780000000  5412.93357761204243
0.84997923000000 1.84865473000000 103.00000000000000  5413.39193494617939
1.03838091000000 1.98733881000000  96.41472996000000  5417.63018137216568
1.11782751000000 1.57392506000000  99.19177505000000  5419.21913480758667
0.96446195000000 1.83473005000000  73.12376800000000  5421.37300129234791
1.09602483000000 1.68888476000000 124.72654005000000  5422.03319135308266
0.91689314000000 1.76116194000000  75.16588608000001  5422.85746693611145
1.15683888000000 1.68888476000000  93.59447023000000  5424.04154641926289
1.01014605000000 1.70743516000000 132.57183988000000  5425.35452345013618
0.83495172000000 1.68888476000000 114.51381997999999  5426.78058114647865
0.83151155000000 1.64330804000000 111.92507707000000  5431.12610639631657
1.03328833000000 1.98979294000000  98.75001281999999  5431.88247744739056
1.09888987000000 1.68888476000000 124.36842253000000  5432.13707961142063
0.82590593000000 1.68888476000000 103.94917192000000  5436.42515593767166
1.15621431000000 1.68888476000000 112.00045894000000  5436.88297972083092
0.84387899000000 1.68888476000000  88.58263153999999  5438.48638589680195
0.96446195000000 1.49497487000000 103.00000000000000  5442.19594836234955
0.84202217000000 1.75143041000000 114.37094936000000  5451.01170442998409
0.96446195000000 1.64079359000000 135.10379205999999  5452.80005232989788
1.12991729000000 1.57942938000000 102.08414506000000  5456.94596777856259
1.14666943000000 1.62754700000000 113.29419774000000  5458.61670778691769
0.94215779000000 2.00300281000000 103.26372468000000  5459.68474538624287
0.96446195000000 2.01005025000000 103.00000000000000  5461.18466052412987
0.96446195000000 1.49475932000000 117.72809281000001  5463.97579793632030
0.85430119000000 1.80917607000000 113.93215521000000  5472.46652482450008
0.87774266000000 1.51969912000000 112.42184227000000  5473.37174265086742
1.02804741000000 1.50633645000000 103.05409966000001  5475.50026048719883
0.94094269000000 1.85243323000000  73.81914073000000  5475.90862151980400
1.13695796000000 1.68888476000000 117.70661611000000  5477.96057121455669
1.13247629000000 1.70183941000000  86.59209253000000  5482.04343201220036
1.10625626000000 1.55216668000000 103.00000000000000  5482.06291352212429
0.99529615000000 1.88549712000000 121.94304794999999  5482.48327518999577
1.17009170000000 1.68612089000000 103.00000000000000  5486.71404051780701
0.95341799000000 2.00893966000000 103.00000000000000  5494.18731193244457
1.10887792000000 1.88772027000000 103.00000000000000  5494.25988604128361
1.06252927000000 1.70471356000000  78.01389568000000  5494.42557470500469
0.98882038000000 1.70637129000000  74.76435515999999  5496.27595257759094
0.96446195000000 1.92921156000000 117.92091462000000  5512.54438279569058
1.17085427000000 1.68888476000000 103.00000000000000  5517.68172623217106
0.85975736000000 1.88432440000000 103.00000000000000  5520.70567356050014
0.96446195000000 1.90380906000000 120.82655036000000  5521.86897796392441
0.96469684000000 1.95200313000000 115.00030834000000  5528.16649399697781
0.93479225000000 1.68888476000000  76.08930079000000  5528.79945035278797
0.84848669000000 1.85523468000000  98.38740248000001  5530.32075199484825
1.15891186000000 1.65503860000000 111.21095810000000  5531.76409332454205
0.89055185000000 1.94627431000000 105.08266352000000  5531.99271954596043
1.14282326000000 1.77224608000000 111.69923527000000  5536.14898604154587
0.82479875000000 1.68030477000000 103.00000000000000  5539.98113720118999
0.94331591000000 1.74282477000000  73.91911183000001  5540.18195644021034
1.15615289000000 1.73420624000000 110.81081111000000  5540.42603088915257
1.14184952000000 1.68518836000000  88.87784761000000  5546.98110808432102
0.96702476000000 1.72059684000000 133.82013642999999  5547.19075089693069
1.14018532000000 1.68888476000000 117.38406251000001  5553.53898969292641
0.92027400000000 1.68888476000000  76.71691908000000  5555.02310159802437
1.14760776000000 1.76249330000000 111.34940228000001  5560.14579832553864
1.15900629000000 1.68888476000000 112.03482246000000  5560.99151468276978
0.96446195000000 1.99548697000000 107.92491208000000  5572.21251817047596
0.98565650000000 1.68888476000000  75.28340018000000  5572.93754743039608
0.96446195000000 1.90468243000000  74.33673593000000  5583.34214292466640
0.84037473000000 1.81962997000000 103.00000000000000  5584.37240967154503
0.96860675000000 1.63814834000000 135.47860277000001  5584.95379661023617
1.06357118000000 1.52023609000000 103.00000000000000  5585.06192848086357
0.96446195000000 1.66435704000000 135.42477181000001  5589.07866239547729
0.96446195000000 1.68888476000000 134.97487437000001  5590.08758950233459
1.14949833000000 1.64169610000000 114.53697216000000  5592.40232482552528
0.95404597000000 1.97141269000000 112.24728055999999  5592.77527841925621
0.98613002000000 1.58934627000000 133.79963054000001  5595.10542774200439
0.96446195000000 1.92862420000000 118.43433041999999  5595.71701972186565
0.89770306000000 1.68888476000000  78.27965555000000  5597.73922687768936
0.82412060000000 1.68888476000000 103.00000000000000  5598.16897013783455
0.94937754000000 1.90441834000000  74.61984661000000  5603.86493082344532
0.96052609000000 1.81258159000000  72.53425602999999  5604.97792600095272
1.07126041000000 1.68888476000000  79.04691744000000  5605.17441104352474
1.13062763000000 1.59265858000000  96.64721450000000  5609.69311504065990
1.06808742000000 1.64611720000000 129.25726275000000  5612.94818060100079
1.14162471000000 1.83236777000000 102.23038852000001  5613.34916973114014
0.96446195000000 1.68888476000000  75.17587940000000  5614.31655754148960
1.13781655000000 1.82204812000000 107.25493794000000  5617.27180589735508
1.05438446000000 1.51480066000000 103.00000000000000  5628.52011659741402
1.16692455000000 1.72411183000000 107.72382168999999  5629.34074945747943
0.96775296000000 1.87283496000000  73.08168677000000  5632.14551697671413
0.96446195000000 1.91754334000000 119.88517536000001  5635.87264901399612
1.04569022000000 1.95050505000000 109.49942014000000  5646.55765536427498
1.05864923000000 1.93935502000000 109.12015946000000  5658.20789627730755
1.06557890000000 1.96119109000000 101.36895183999999  5660.05638273060322
1.14741503000000 1.62553838000000 114.59388925000000  5660.92500045895576
1.00464491000000 1.49400314000000 115.30574566000000  5666.36751921474934
0.96446195000000 1.70665305000000  74.29842422999999  5669.70242579281330
0.96446195000000 1.81052381000000  72.27832029000000  5677.60869364440441
1.17121596000000 1.74379252000000 100.48337033999999  5678.60118058323860
1.14988262000000 1.81463607000000 103.00000000000000  5683.51579435169697
0.97538408000000 1.86112877000000  72.63984773000000  5687.24194103479385
0.96446195000000 1.49759970000000 120.92531422000000  5687.83673104643822
0.96446195000000 1.78205672000000  72.41842479000000  5688.53812517225742
1.14979298000000 1.63673012000000 115.00021864999999  5692.23484592139721
0.98137383000000 1.57780948000000  83.51516348000000  5699.07126514613628
1.11363191000000 1.68888476000000  83.18692407000000  5702.21527895331383
1.17271595000000 1.73667500000000  99.77751632000000  5702.91252535581589
1.01905340000000 1.50471367000000 119.22106787000000  5708.23455399274826
1.04434240000000 1.68032110000000  77.28364707000000  5713.71812827885242
1.12973918000000 1.64778187000000  88.25413369000000  5715.68458028137684
0.82620205000000 1.74486499000000  99.87900987000000  5719.07312245666981
0.96995554000000 1.54634780000000  87.69441954000000  5724.08827739953995
0.92668504000000 1.89023970000000 121.55279184000000  5748.32882377505302
0.90287608000000 1.68888476000000  77.43607734000000  5750.09900642931461
0.93193823000000 1.58989430000000 134.33011091000000  5752.36601909995079
1.12930338000000 1.64092042000000 120.59181427000000  5756.76811166107655
1.17594994000000 1.68888476000000 104.86069578000000  5758.41932477056980
1.04733088000000 1.68888476000000 131.55552458000000  5768.86311480402856
1.11725315000000 1.88480472000000 103.73738208000000  5769.55831517279057
1.06179407000000 1.68442481000000 130.30911540000000  5769.67835944890976
1.00844124000000 1.67498877000000  75.92743588000000  5771.89427943527699
1.15440545000000 1.72224561000000  89.28196198000001  5775.55560760200024
0.84328851000000 1.64137065000000  90.04263834000000  5778.10325342416763
0.96328436000000 1.58566365000000 134.77097685999999  5779.29606290161610
1.02768986000000 1.54912543000000  89.10944857000000  5782.43908005952835
1.07643200000000 1.72510819000000  77.52015270000000  5785.14150953292756
0.82259337000000 1.66232286000000 103.00000000000000  5788.62555442750545
0.88869070000000 1.54723576000000  92.02229695000000  5792.27329736948013
1.10956616000000 1.55015395000000 101.44633742000001  5793.56746402382942
1.17051702000000 1.68888476000000 109.61406540000000  5800.19320073723793
1.17407682000000 1.68888476000000 107.64989790000000  5800.38014088571072
0.95480681000000 1.68888476000000 135.64658416000000  5805.65130801498890
1.13610551000000 1.65233504000000  88.60602978999999  5806.23272386193275
0.96446195000000 1.68888476000000 135.67839196000000  5810.53775966167359
0.91629203000000 2.01116891000000  92.59385652000000  5811.21146076917557
0.96446195000000 1.62862722000000  78.35143223999999  5818.68786396086216
1.07157079000000 1.68888476000000 129.36888078999999  5825.55212897062302
1.17839196000000 1.68888476000000 103.00000000000000  5826.90669293701558
0.82171817000000 1.68888476000000 102.85787832000000  5827.13966558873744
1.04450437000000 1.61638891000000  81.48854163999999  5828.77952279150486
1.12465577000000 1.66641438000000  85.48176377999999  5837.43072763085365
1.16429794000000 1.78499438000000 103.00000000000000  5846.13447615504265
1.17882247000000 1.68888476000000 102.88493085000000  5846.40759417414665
1.02299114000000 1.73076510000000  73.93318300000000  5847.14795982837677
1.17799649000000 1.67324051000000 103.00000000000000  5850.71020054817200
1.14694018000000 1.68888476000000 117.63321704000001  5854.97804719209671
0.96446195000000 1.48888476000000 103.00000000000000  5856.34509176015945
1.12171581000000 1.68888476000000  83.70791709000000  5856.57455919682980
1.10421226000000 1.90241337000000 105.95747511000000  5859.49568542838097
0.95271008000000 1.89391467000000  73.17036063000000  5862.73883616924286
1.06912960000000 1.52414778000000  99.91495985000000  5868.25996777415276
0.96446195000000 1.48869347000000 103.00000000000000  5870.05507978796959
0.97202368000000 1.95797873000000 116.20134511000001  5871.82395115494728
0.82261984000000 1.64950616000000 103.00000000000000  5873.95991180837245
1.09848889000000 1.71481620000000  79.71954454999999  5882.50948750972657
1.12431230000000 1.88391117000000 101.47522845000000  5887.00690627098083
1.16356056000000 1.69149322000000 113.18464742000000  5888.47682590782642
1.16307607000000 1.61481931000000 107.05034040000000  5890.05461046099663
0.82361064000000 1.73688562000000 103.00000000000000  5891.01279364526272
0.96446195000000 1.53898896000000  88.39560753000001  5904.04774536192417
0.98415367000000 1.67604926000000  75.11689364000000  5909.06103377044201
1.17849812000000 1.71754434000000  98.44986717000000  5910.40117610991001
1.02927617000000 1.56775209000000  85.89468110000000  5911.36904515326023
0.98214442000000 1.69171103000000  74.33398129000000  5913.24213670194058
0.89651812000000 1.69353257000000  77.38401634000000  5913.83045904338360
0.85560633000000 1.54030268000000 103.00000000000000  5913.94685150682926
1.14902386000000 1.58749219000000 103.34624282999999  5915.60218897461891
0.97218387000000 1.59016437000000  81.51462659000001  5917.74307629466057
0.82279729000000 1.64208480000000 103.00000000000000  5918.13215078413486
0.96446195000000 1.68888476000000  74.47236181000000  5920.58307649195194
0.85831121000000 1.89494752000000 104.20698616999999  5920.97837515175343
1.10884305000000 1.71764769000000 124.18090223000000  5922.35220199823380
0.96446195000000 2.02889447000000 103.00000000000000  5923.99411061406136
1.01098130000000 1.48848636000000 109.97698076000000  5934.46779155731201
0.82990468000000 1.68888476000000 115.05841893000000  5934.72005376219659
0.95443092000000 1.48474223000000 105.33103918000000  5935.74793213605881
1.04336634000000 1.50466433000000 103.00000000000000  5941.34974946081638
0.94416665000000 2.02401103000000 103.00000000000000  5945.84654024243355
0.82655651000000 1.69844802000000 112.38459552000000  5948.63604800403118
0.84349071000000 1.59454056000000  94.43137151000001  5951.25784935057163
1.11253737000000 1.70392772000000  81.45811921000001  5956.24913151562214
0.91054512000000 1.68888476000000  76.34349602000000  5963.11024880409241
0.94845133000000 1.63080268000000 136.65745595999999  5967.54303406179042
1.01242691000000 1.68888476000000  74.87086932000000  5968.06288126111031
0.95943481000000 1.94446364000000 118.34950010999999  5971.12930679321289
0.96446195000000 1.59457879000000 135.85333449000001  5972.90675677359104
0.97931320000000 1.50740472000000  95.22452843000001  5975.31470158696175
0.96446195000000 1.48633704000000 117.85872672000001  5985.91883511841297
0.99273996000000 1.96836238000000 114.81010442000000  5990.82569901645184
0.95369704000000 1.96720313000000 115.32976838000000  5996.52043296396732
1.17836859000000 1.65470074000000 103.00000000000000  6003.90681354701519
0.93785896000000 2.02366564000000 102.89164506000000  6004.09580162167458
1.17248089000000 1.76736780000000 103.61478993000000  6004.73682293295860
0.91923755000000 1.74158001000000  73.91126872000000  6006.87903243303299
1.16768957000000 1.63135053000000  98.71253331000000  6009.01659269630909
0.97540579000000 1.93359590000000 119.86297738000000  6013.28867372870445
0.96446195000000 1.98485650000000 113.12652562000000  6013.66024294495583
0.83099895000000 1.80052499000000 102.48226760999999  6019.70072363317013
0.83683463000000 1.76031689000000 114.55877853000000  6022.37798124551773
0.96446195000000 1.53601932000000  88.58016257000000  6024.37792143225670
0.95552135000000 1.68888476000000  74.36859217999999  6026.27883215248585
0.94718104000000 1.48834750000000 119.16809272000000  6026.28784915804863
0.96446195000000 1.95667404000000 117.18379890000000  6027.76912163197994
0.96446195000000 1.68888476000000 136.38190954999999  6028.12716315686703
1.04462798000000 1.68888476000000  76.06147023000000  6032.00712311267944
0.82807787000000 1.77656993000000 105.18064389000000  6032.31221613287926
1.17823976000000 1.64995001000000 103.00000000000000  6035.20824810862541
0.96446195000000 1.97142461000000 115.23627971000001  6040.02222830057144
1.12060022000000 1.89399804000000 103.00000000000000  6045.29851326346397
0.83386338000000 1.62669739000000  93.87015339000000  6045.58805517852306
1.14390492000000 1.84975775000000 103.00000000000000  6046.00810867547989
1.00834451000000 1.74334698000000  72.62296670000001  6049.53073847293945
0.96446195000000 1.69829993000000  73.76953220000000  6052.13297547399998
0.96446195000000 1.84015446000000  71.33601122000000  6053.05936014652343
0.82658256000000 1.69704544000000 113.37564374000000  6056.80850374698639
0.86692279000000 1.92672954000000 103.00000000000000  6056.82752330601215
1.10781707000000 1.68888476000000  81.17609126000001  6056.93256041407585
1.01439643000000 1.48982390000000 114.97550242000000  6063.84358288347721
1.16618310000000 1.80151898000000  99.32671610000000  6067.93467786908059
1.14664511000000 1.70130778000000  86.41212274000000  6068.29564003646374
1.08697920000000 1.68888476000000 128.49620522999999  6070.29212564229965
0.82112525000000 1.68888476000000 108.58481972000000  6072.81817711889744
1.04459056000000 1.68888476000000 132.85989280000001  6074.18515612185001
1.18161620000000 1.66135740000000 103.00000000000000  6075.05224110186100
0.96446195000000 1.80118802000000  71.24624301000000  6077.98211757838726
0.90222095000000 1.58261042000000  84.51999475000000  6083.60706532001495
0.96446195000000 2.03517588000000 103.00000000000000  6084.40158995985985
1.06391315000000 1.50655508000000 110.06330341000000  6088.47136692702770
0.89228505000000 1.97845471000000 103.00000000000000  6090.54021112620831
0.96446195000000 1.84281086000000  71.26007156999999  6091.18744471669197
0.90868082000000 2.00156239000000 103.00000000000000  6091.24166075885296
1.03703048000000 1.68888476000000  75.51378509000000  6096.09491884708405
1.18328573000000 1.72295801000000 103.00000000000000  6096.35421720147133
1.02116910000000 2.03092323000000  95.52677798000001  6096.60579425096512
1.08541396000000 1.52075674000000 104.88470552000000  6100.57987703382969
1.12171647000000 1.55257254000000 102.00300770000000  6101.62980726361275
0.86293383000000 1.91843779000000 103.00000000000000  6107.13188026845455
0.92203621000000 1.68888476000000  75.32935759999999  6108.27311091125011
1.05211486000000 1.64896110000000  78.56667199000000  6112.19248008728027
1.08172657000000 1.52051213000000 103.00000000000000  6115.45809230208397
0.96446195000000 2.05018291000000  90.61304355999999  6118.29301720857620
1.11592230000000 1.54500958000000 103.00000000000000  6129.80791786313057
1.09803529000000 1.68888476000000  79.86590793000001  6135.40505509078503
0.97944015000000 1.93542965000000 120.16501031000000  6139.13634131848812
1.14001777000000 1.65732016000000 120.78011734000000  6146.79227706789970
0.98128314000000 2.03696812000000 103.00000000000000  6148.90384654700756
0.82680796000000 1.78320824000000 103.00000000000000  6153.49724015593529
0.91138650000000 1.96412085000000 112.43433878000000  6154.79268130660057
1.17708510000000 1.68888476000000 110.49106383000000  6159.69106040894985
1.14049940000000 1.68888476000000 120.62437941000000  6160.30144755542278
0.86582614000000 1.59863531000000  87.19271270000000  6160.98995870351791
0.94068523000000 1.56450288000000 134.51593396000001  6162.21604157984257
1.10428378000000 1.72597546000000 125.51432950000000  6169.68910624086857
1.15279327000000 1.68888476000000  87.63276637000000  6175.83196058869362
0.96446195000000 2.04846870000000  88.16586848000000  6176.80303865671158
1.11869325000000 1.68888476000000  82.08437139000000  6179.63359670341015
1.11364398000000 1.91281494000000 103.00000000000000  6185.30858714878559
0.96590461000000 1.48007179000000 115.35901551000001  6195.17943474650383
0.92835363000000 1.95880389000000 115.86908733999999  6198.73422445356755
1.17568183000000 1.77946513000000  98.84117550000001  6198.85322546958923
0.84941428000000 1.63795811000000 125.23728220000000  6203.86605878174305
0.87840264000000 1.96660960000000  99.19154183000001  6205.59680439531803
0.88972789000000 1.50977655000000  99.65171126000000  6210.55928690731525
1.16834778000000 1.78941868000000 105.58510006000000  6211.08344627916813
0.89767477000000 1.72557279000000  75.44982983000000  6213.75435730814934
1.17313375000000 1.62045884000000 102.65919221000000  6213.99946027994156
0.96446195000000 1.67942134000000  74.27739269999999  6216.72048890590668
0.96446195000000 1.89766285000000  71.84703703000000  6219.63866300880909
1.05896526000000 1.73239053000000  74.76211325000000  6223.71580466628075
0.96446195000000 1.68830611000000  73.82264589000000  6225.40498073399067
1.16746744000000 1.60637441000000 107.40561384999999  6225.77783411741257
0.96446195000000 1.78034709000000  71.08887824999999  6232.79437299072742
0.88981481000000 1.97651931000000 104.24837303000000  6233.35308343172073
1.16245483000000 1.59630813000000 107.79079002000000  6238.13066779077144
0.96446195000000 1.68888476000000  73.76884422000001  6246.27343563735485
1.12484609000000 1.88515477000000 106.15560836000000  6252.75573106110096
1.04955943000000 1.68888476000000 133.00272154000001  6255.50181582570076
1.06458871000000 1.98531231000000 102.19034701000000  6255.96585507690907
0.96446195000000 1.68888476000000 137.08542714000001  6256.36785419285297
1.09898613000000 1.68888476000000 127.66461128000000  6259.93716707825661
0.96849328000000 1.93125668000000 121.28639620000000  6264.40205939114094
0.96446195000000 1.96574379000000 117.25920137999999  6270.69106119871140
0.96446195000000 1.58380540000000  81.35878952000000  6272.76249478757381
0.96446195000000 1.53508306000000 132.09761087999999  6274.03336894512177
0.85654111000000 1.61640116000000  86.82368588999999  6278.64606206119061
0.96446195000000 1.71200415000000  72.66406864000000  6302.66213005781174
1.08244594000000 1.72916338000000 128.68057542000000  6309.60323126614094
0.94748972000000 1.65229383000000  75.87297572000000  6315.18116326630116
0.81794910000000 1.71974667000000 103.00000000000000  6316.21113543212414
1.18968787000000 1.68325570000000 103.00000000000000  6316.28208599984555
0.96446195000000 1.48241206000000 103.00000000000000  6319.24420718848705
0.97689052000000 1.87338513000000  70.89199848000000  6323.31271225214005
0.93174938000000 1.51535150000000  92.52719521000000  6330.83853797614574
0.98546350000000 2.04363665000000 103.00000000000000  6339.61477167904377
0.95520143000000 2.04735694000000  85.71423793000000  6340.19903372228055
1.03651089000000 1.68888476000000 134.35155950999999  6341.00227145850658
0.95174814000000 1.71737337000000  72.58703875000000  6341.61982104182243
0.81658291000000 1.68888476000000 103.00000000000000  6345.64724057912827
0.90760897000000 1.68888476000000  75.67570083000000  6345.99785569310188
0.96446195000000 1.98786167000000 114.70812736000001  6347.60038484632969
0.99151748000000 1.72228933000000  72.22436691999999  6358.04753777384758
1.18984317000000 1.70849167000000  99.28153786999999  6359.62630349397659
0.96446195000000 1.96044984000000 118.46760025000000  6360.17244848608971
1.11901154000000 1.54023627000000 104.36039973000000  6375.88247109949589
1.18993953000000 1.72514374000000 101.14350408000000  6380.02416695654392
0.96446195000000 2.06069161000000  90.29763153000000  6387.98925299942493
0.96446195000000 1.69905492000000 137.23284891000000  6393.83663073182106
0.87643664000000 1.96232278000000 102.75797020000000  6394.20364308357239
0.96446195000000 2.04773869000000 103.00000000000000  6395.71397058665843
0.96446195000000 1.75072609000000  71.27584007999999  6398.14267370104790
0.91709738000000 2.02311355000000 103.00000000000000  6398.69523921608925
1.07478975000000 1.68888476000000  77.02182418000000  6398.79413449764343
0.83025762000000 1.75195270000000  88.99029593000000  6404.08824642002583
1.08543088000000 1.64541187000000 130.16677693000000  6406.29660332202911
1.01481293000000 1.66526540000000 136.38767225000001  6406.92950220406055
1.19061695000000 1.68888476000000 105.57035833000000  6409.39722560346127
0.96480764000000 1.48120843000000 103.00000000000000  6409.56327094137669
1.11420564000000 1.67786537000000 126.36448111000000  6418.77142550051212
1.07366521000000 1.70841627000000  76.02516642000001  6420.66202986240387
1.12239768000000 1.68888476000000 125.01500660000001  6426.01889938116074
0.94149075000000 1.48982749000000 122.67282238999999  6432.42814783751965
0.96446195000000 1.58274031000000 136.87517631000000  6433.93720355629921
0.81780202000000 1.69023534000000 109.06222914999999  6439.38995790481567
0.87029844000000 1.51309446000000 103.00000000000000  6439.47735764086156
0.96446195000000 1.56415881000000 135.72437022000000  6450.65141215920357
1.10492028000000 1.92851420000000 105.84616145000000  6469.40705856680870
0.90211790000000 2.00816303000000 103.00000000000000  6470.73787261545658
1.18365091000000 1.76894644000000 103.00000000000000  6474.46281631290913
1.18980229000000 1.68791702000000  97.51630564000000  6474.66865988075733
1.18839131000000 1.68888476000000 108.55417222000000  6476.29187670350075
1.19346734000000 1.68888476000000 103.00000000000000  6476.46651737391858
0.96446195000000 1.68888476000000 137.78894471999999  6482.05682566761971
0.96446195000000 2.05574881000000  85.62376487000000  6488.39960350096226
1.19063719000000 1.69928395000000  97.28785680000000  6488.70584765076637
0.97616102000000 1.68888476000000  73.17028635000000  6488.71779628098011
0.86974990000000 1.68888476000000  79.29821815000000  6489.79494482278824
1.07871887000000 1.65191301000000  79.21588758000000  6494.08390775322914
0.90932852000000 1.72963148000000  73.72252637000000  6494.74309493601322
1.18151395000000 1.67921639000000 112.08417052000000  6496.54650877416134
1.16903369000000 1.68325481000000  89.80032983000000  6497.59655664861202
1.18026992000000 1.72588178000000  91.86271945999999  6498.41931882500558
0.82357846000000 1.76036614000000 108.89840153999999  6499.75097633898258
0.89451941000000 1.99861005000000 103.00000000000000  6501.22816760838032
0.89036263000000 1.54733951000000  89.33038291000000  6509.27913543581963
1.13352233000000 1.89413355000000 102.92592599000000  6510.52718625962734
0.90174361000000 1.57238930000000  84.61338301000001  6525.40908204019070
1.13860461000000 1.65429867000000 122.89476268999999  6525.58747544884682
0.95927211000000 2.02355988000000 109.92762643000000  6528.08863410353661
1.03003655000000 1.68888476000000  74.14216648000000  6530.68860933184624
0.90459393000000 1.68888476000000  75.46597807000001  6530.75744473934174
1.05864691000000 1.68555895000000 133.20957096000001  6535.65105019509792
1.01941790000000 1.48788896000000 102.77270433000000  6539.21132181584835
1.06630963000000 1.99329679000000 103.00000000000000  6542.05382548272610
0.96446195000000 1.68888476000000 138.00000000000000  6545.93239940702915
0.99768162000000 1.58634613000000 136.46186105000001  6546.50990955531597
1.00834763000000 1.68888476000000 136.79048148000001  6549.82676285505295
0.96446195000000 2.05402010000000 103.00000000000000  6550.34213615953922
0.96446195000000 1.69232317000000  72.94635452000000  6551.80145305395126
1.03781136000000 1.49983513000000  99.52391021000000  6553.53619854152203
0.87446810000000 1.71643072000000  77.48274692000000  6555.07768012583256
0.96446195000000 2.02393740000000 110.16619793000000  6556.75996017456055
1.19385137000000 1.69238076000000 105.76006323000000  6561.08583822846413
1.12310459000000 1.91016068000000 104.25744318000000  6561.88667550683022
0.96446195000000 1.53426239000000  87.29927649000000  6564.48848955333233
0.81446195000000 1.68888476000000 103.00000000000000  6565.49011184275241
0.91441287000000 2.01124804000000 107.24810585000000  6565.91437910497189
0.96446195000000 1.68888476000000  73.06532663000000  6568.98895028233528
1.16604877000000 1.82873965000000 103.00000000000000  6570.08670970797539
1.09826226000000 1.68888476000000  78.53177583000000  6571.32842649519444
0.81855326000000 1.75441111000000 103.00000000000000  6574.06977069377899
0.97700095000000 1.71210167000000  72.01472201000000  6576.59496377408504
0.97945654000000 1.87164602000000 127.95659292000001  6580.29532748460770
1.18656920000000 1.76335386000000  96.23507351000001  6584.42239578068256
1.11035745000000 1.94346812000000  99.70012997000001  6585.17396338284016
1.12263222000000 1.91599775000000 103.00000000000000  6589.94159939885139
1.04990031000000 1.71245770000000  73.92283225000000  6592.32702718675137
1.18891749000000 1.68888476000000 109.75921092000000  6593.37707784771919
1.16575543000000 1.83621727000000 100.80684796000000  6593.85840184986591
0.96446195000000 1.68888476000000  73.00000000000000  6595.26362271606922
0.96446195000000 1.47473111000000 106.13228977000000  6602.79735171794891
0.97737667000000 1.95166281000000 120.65286216000000  6615.47258903086185
0.97205082000000 1.71040123000000  71.99195306999999  6618.13655427098274
1.18383877000000 1.78144680000000 103.00000000000000  6619.70384892821312
0.99645460000000 1.53497974000000 132.38078046000001  6622.20168514549732
0.88074000000000 1.68888476000000  77.51038728000000  6622.87149010598660
0.96791517000000 1.47202446000000 110.49745805000001  6625.44403949379921
0.96446195000000 1.55888169000000  83.45372802000000  6627.31112445890903
0.93793943000000 1.50005744000000  94.96273200000000  6629.36635839939117
0.95180224000000 1.64853650000000 138.89841566999999  6635.54645983874798
0.89626728000000 1.51847318000000  93.81457881000000  6647.40942689776421
1.13151873000000 1.68572759000000 124.57694380000000  6652.48455296456814
1.02183922000000 1.68888476000000 136.38766763000001  6659.69386097788811
0.84719853000000 1.60711337000000  88.66641162000001  6664.32000501453876
1.18461145000000 1.62265660000000 106.93663008999999  6664.87407222390175
1.19749761000000 1.68137166000000 103.00000000000000  6665.31746499240398
1.12424231000000 1.68888476000000  81.04619877000000  6665.44062912464142
1.17156919000000 1.59365698000000 104.03701888000001  6666.88472713530064
0.92766399000000 2.04364421000000 103.00000000000000  6670.40530160069466
0.92282713000000 1.64051872000000 138.08324897000000  6675.43224115669727
0.93684159000000 1.58147996000000 137.29981975000001  6678.68373462557793
1.18914644000000 1.75808944000000  95.66746596000000  6679.87491519749165
1.07241727000000 1.50563232000000 103.00000000000000  6681.90955749154091
0.84154588000000 1.67615512000000  84.92558090000000  6687.89197756350040
1.18828044000000 1.77081449000000 103.00000000000000  6691.25077416002841
1.17990130000000 1.79954728000000 103.00000000000000  6693.07859472930431
0.86740000000000 1.65174339000000  81.01385540000000  6694.40501195192337
0.96446195000000 1.68888476000000 138.49246231000001  6695.68440160155296
1.01996096000000 1.48534347000000 103.00000000000000  6698.33422416448593
0.87327577000000 1.50607963000000 103.00000000000000  6699.99570646882057
0.96446195000000 1.47319932000000 106.20318913000000  6702.01479950547218
0.96446195000000 1.93655078000000 122.72030497999999  6710.46818406879902
1.07892895000000 1.50363849000000 108.38221932000000  6711.08584477007389
0.96824513000000 2.07685545000000  92.99747791999999  6725.19565382599831
0.95302121000000 1.92333813000000 123.85943116000000  6726.27260322868824
1.13656446000000 1.54710417000000 105.04967222000001  6727.91802869737057
0.97870996000000 1.71393930000000 137.61898864000000  6732.02375878393741
0.92975443000000 2.01587825000000 110.41552910999999  6732.37614166736603
0.84896832000000 1.63986810000000  85.09082952999999  6734.13217487931342
1.00463711000000 1.48186702000000 118.91703113000000  6739.67546445131302
1.18044344000000 1.73757970000000  90.00907506000000  6741.61526811122894
1.01707740000000 1.67753407000000  73.78467816000000  6741.66531832516193
0.91124580000000 2.03098685000000 103.00000000000000  6762.14842595160007
1.07665846000000 1.69696192000000 131.93428716000000  6763.39958710968494
1.19183063000000 1.74331664000000 106.84732962000000  6769.42872606217861
1.19578899000000 1.68153495000000 108.21093779000000  6770.11676247417927
1.19514679000000 1.74881132000000 103.00000000000000  6773.26508407294841
0.82312657000000 1.68888476000000 116.50853334000000  6773.83568377792835
1.18190166000000 1.64076197000000  95.39861664999999  6775.51388937234879
1.14131039000000 1.89256755000000 103.00000000000000  6782.22791455686092
0.91526968000000 1.47771299000000 115.25651188000001  6787.69145926833244
0.96446195000000 1.70995618000000  71.68534880999999  6793.34419895708561
1.15372936000000 1.57802003000000  98.10337263000000  6796.16281335055828
1.02052929000000 1.69790609000000 136.67272933999999  6799.98547777533531
0.96446195000000 1.47613065000000 103.00000000000000  6802.83211508393288
1.20100503000000 1.68888476000000 103.00000000000000  6804.76786613464355
1.17924049000000 1.73136151000000 113.52205041000001  6813.79872778058143
0.87171306000000 1.95828970000000 106.02021697000001  6813.91229586303234
0.96446195000000 1.70052399000000 138.48637013999999  6816.11849896609783
1.05401819000000 1.73268243000000 133.12035373000001  6818.01322758197784
0.96446195000000 1.97237450000000 119.25969046000000  6819.96617254614830
0.96446195000000 1.47287751000000 105.06286827000000  6826.69009014964104
0.98600623000000 1.73256490000000  70.76947939000000  6830.12872077524662
1.17961577000000 1.77662227000000 109.39177354000000  6833.47820860147476
1.00684180000000 1.75607801000000  70.40590269000000  6836.63473100960255
0.83008278000000 1.81859889000000 108.41657244000000  6837.63580629229455
0.97063427000000 1.94714333000000 122.18764717000001  6843.48627044260502
1.09002047000000 1.68888476000000 130.91368381999999  6844.06202636659145
0.99094119000000 1.83426412000000  69.23326295000000  6847.20906037092209
1.20043165000000 1.71640027000000  98.76020154000000  6849.14242866635323
1.19734243000000 1.72327780000000  96.05129828000000  6856.91586941480637
0.96446195000000 1.82457319000000  69.17641055999999  6868.31923332810402
0.95890651000000 1.66117621000000  73.93796850000000  6870.21423681080341
0.97136033000000 1.80041527000000  69.26308553000000  6871.19954377412796
1.01752708000000 1.63192606000000 137.74795970000000  6872.53754997253418
1.13185607000000 1.68888476000000  81.29015801000000  6873.92175824940205
0.84066267000000 1.70290075000000  83.48523256000000  6875.59011384844780
0.90095136000000 1.48049310000000 108.64537793000000  6876.03557634353638
1.10674786000000 1.95444840000000 103.00000000000000  6893.83221895992756
1.20313948000000 1.69452971000000 103.00000000000000  6898.19842098653316
1.20241703000000 1.68888476000000 104.97663274999999  6900.14270280301571
1.01537036000000 1.74020458000000  70.86797930000000  6900.72136825323105
0.96446195000000 1.68888476000000  72.36180905000001  6902.29932825267315
1.10158033000000 1.68888476000000  77.84529523000000  6902.58063539862633
1.06993066000000 1.66341927000000  76.71737770000000  6903.61997810006142
0.96446195000000 1.56786999000000 137.58819901000001  6911.38821090757756
0.98301806000000 1.68005800000000 139.06782784000001  6912.59023439884186
1.18342310000000 1.60492802000000 104.07175135000000  6919.95062687992959
1.10903518000000 1.68888476000000  78.50616090000000  6922.38561640679836
1.11429671000000 1.94468005000000 103.00000000000000  6924.22116407752037
1.19317272000000 1.68888476000000  93.84564619000000  6930.53258012235165
0.90094246000000 1.68888476000000  74.85675827999999  6937.01796859502792
0.96446195000000 1.68888476000000 139.19597990000000  6941.07992392778397
0.99805713000000 1.68888476000000 138.45121477000001  6942.90465594828129
0.93697579000000 1.75450392000000  70.61143767000000  6944.61696141958237
0.81212687000000 1.72333609000000 103.00000000000000  6951.22606508433819
1.20445158000000 1.68888476000000 102.75297270000000  6954.67443974316120
1.14790573000000 1.70361187000000 122.70218250000001  6959.80017133057117
1.19890790000000 1.64587300000000 103.00000000000000  6963.75478892028332
1.01756930000000 1.75932600000000  70.28530300000000  6970.36249954998493
1.05213757000000 1.68888476000000 135.14712109000001  6972.41048718988895
0.96446195000000 1.57193490000000 138.06073185000000  6974.26508907973766
1.18986719000000 1.64312349000000  96.34990343000000  6977.42132748663425
0.82731462000000 1.71960515000000 118.53278467000000  6977.46764397621155
0.96969205000000 1.57793758000000  80.32992127000000  6983.13699474930763
0.96446195000000 1.74270044000000  70.17478257000000  6984.95185418426991
1.19329623000000 1.66119947000000  95.40813537000000  6986.20575413107872
0.96876605000000 1.47525795000000 120.46430846000000  6988.27098371088505
1.03438997000000 1.49445834000000  98.55718803000001  6990.50132627785206
1.19356212000000 1.77806571000000 103.00000000000000  6994.44029234349728
1.12815018000000 1.69168014000000 126.41562240000000  7004.20421558618455
1.13933314000000 1.69153660000000 124.66782327000000  7005.24104590713978
0.98606814000000 1.47481901000000 103.00000000000000  7007.95212423801422
0.96446195000000 2.07286432000000 103.00000000000000  7011.42943334579468
0.86417569000000 1.68888476000000  78.78089704000000  7017.37441702187061
1.12913319000000 1.54810595000000  97.82045302000000  7025.31307581067085
0.94799494000000 2.06670183000000  83.01939613000000  7033.52321493625641
1.00025679000000 1.54451838000000 134.85033995000001  7034.13928437232971
0.97065214000000 1.68888476000000 139.47027281000001  7043.14499257504940
1.01796809000000 1.51299602000000  91.46638657000000  7046.22728274762630
0.97456886000000 1.58676886000000  79.24809037999999  7046.62967818975358
0.84659253000000 1.60060556000000  88.15086805999999  7050.03784503042698
1.04798835000000 2.04598625000000  97.83943385000001  7053.84359084069729
1.20355814000000 1.68888476000000 107.46920015000001  7063.80397595465183
0.86872037000000 1.50070579000000 105.20046684000000  7069.61426538228989
1.08357988000000 2.00322890000000  99.41289558000000  7071.62139743566513
0.84136178000000 1.68888476000000  83.14187533000000  7072.76420964300632
0.90705855000000 1.61025804000000 137.96198011999999  7076.35967922210693
1.07450681000000 1.64603507000000  77.75181200000000  7076.59156228601933
0.84199212000000 1.68888476000000  82.96088741000000  7085.15740732848644
0.94566425000000 1.65551765000000 140.11816585000000  7086.80927821993828
1.09675203000000 1.65834615000000 131.32013896999999  7088.35866825282574
0.92802993000000 1.61812207000000 139.50917519999999  7090.00182391703129
1.16062320000000 1.68888476000000 121.27069458000000  7090.04033172130585
0.80966531000000 1.67305368000000 103.00000000000000  7092.23645545542240
1.00482707000000 2.01404339000000 114.06021643000000  7093.78029246628284
1.08545506000000 1.99284293000000 103.00000000000000  7096.57534736394882
1.09875109000000 1.70426744000000  76.33936405000000  7097.03490079939365
1.17741403000000 1.62732222000000  93.39376255000001  7098.17491967976093
0.80964821000000 1.68633376000000 105.07118868000001  7106.35998003184795
1.14417349000000 1.65285819000000  84.37273188000000  7108.12887176871300
1.18410704000000 1.68888476000000  89.61765004000000  7109.34774881601334
0.88142927000000 1.98495039000000 107.28929246000000  7110.18663866818042
1.16580691000000 1.56974835000000 109.56321341000000  7117.48281094431877
1.00243155000000 1.68888476000000  72.06204803999999  7123.94720999896526
0.96959117000000 1.68888476000000  71.86117621000000  7125.61810337006955
0.94601570000000 1.99077691000000  73.26576455999999  7134.06782300770283
1.20854271000000 1.68888476000000 103.00000000000000  7135.93195068836212
1.20254884000000 1.68799604000000  95.99271329000000  7137.46959137916565
0.81809815000000 1.69363093000000 115.46568554000000  7138.56055647134781
1.19443721000000 1.76127599000000 107.93222335999999  7139.98427414894104
0.96446195000000 1.66900781000000  72.88098631000000  7140.55095535516739
0.98200380000000 1.53388755000000 134.84359096000000  7144.97139149904342
0.96446195000000 1.79339116000000  68.77387499000000  7147.41501474380493
0.96446195000000 1.59920174000000 139.89437201999999  7148.36715014278889
0.80904523000000 1.68888476000000 103.00000000000000  7150.95388384163380
1.05583113000000 1.68888476000000 135.40226340999999  7152.09086187183857
0.96446195000000 2.09039881000000  87.50061005000001  7156.93835479021072
0.98446094000000 1.62041962000000  76.04437009000000  7159.30256719887257
1.05172868000000 1.65922769000000 136.17950279999999  7162.68627791106701
1.04082364000000 1.71869421000000  71.86643635000000  7168.47883147001266
0.96446195000000 1.68888476000000 139.89949748999999  7168.96606594324112
1.20469328000000 1.65254848000000 101.77145580000000  7169.62596586346626
0.83090144000000 1.74954318000000  84.84190404000000  7171.12955068051815
0.95501915000000 1.72259061000000  70.57155002000000  7173.76847571134567
0.85853236000000 1.95137558000000 103.00000000000000  7173.99842460453510
0.87347024000000 1.99136611000000 101.47486691000000  7180.31070628762245
1.15521930000000 1.68888476000000 122.73178436000001  7181.55612684786320
0.95407837000000 2.07817327000000 103.00000000000000  7183.96632443368435
0.99727216000000 1.49377276000000  94.83527282000000  7186.61079454421997
0.89377249000000 1.58441369000000  82.29438661000000  7189.59690932929516
0.96446195000000 1.61813367000000  76.16556308000000  7191.08430403470993
0.93621422000000 1.55107734000000 136.91581024999999  7193.51266616582870
1.20358088000000 1.64316334000000 103.00000000000000  7200.64832098782063
0.96446195000000 2.09003578000000  86.45035894999999  7202.23202820122242
0.98656616000000 1.68888476000000 139.63161557999999  7203.17216402292343
1.20560701000000 1.65119220000000 103.00000000000000  7204.23120500147343
0.86814764000000 1.74094009000000  76.07805317000000  7210.81300190091133
1.18059827000000 1.68888476000000 117.41735950000000  7211.48291027545929
0.95955816000000 2.07221474000000 105.28346741000000  7213.13512964546680
0.95247282000000 2.09109028000000  88.01636030000000  7213.23848384618759
0.93787172000000 1.89713862000000 127.56592198000000  7221.59452395141125
0.96527864000000 1.58896469000000 139.71930904000001  7222.86534588038921
1.15346609000000 1.71759946000000 122.40473369999999  7224.15772105753422
1.18285217000000 1.71743145000000 116.02645462000000  7225.53161178529263
0.88839426000000 1.48792252000000 103.00000000000000  7226.11470524966717
0.99750975000000 1.76822419000000  69.05625960000000  7227.73790706694126
0.90425166000000 1.48272890000000 101.68832322999999  7236.71770222485065
1.14472410000000 1.90791563000000 103.00000000000000  7238.49259550869465
0.96446195000000 1.68888476000000  71.65829146000000  7244.18056556582542
1.02390183000000 1.47378903000000 107.94173594999999  7245.18878175318241
1.00772299000000 1.51979872000000  88.81008011000000  7246.57638259232044
0.82424072000000 1.83341889000000 103.00000000000000  7255.24093699455261
1.20491235000000 1.75987316000000 100.99773238000000  7261.95952451229095
0.94639588000000 1.51265559000000  89.54664200000001  7262.26090514659882
0.94588371000000 2.07854971000000 103.00000000000000  7267.48669487237930
1.19900271000000 1.62939170000000 108.71419262000001  7273.32600328326225
1.06923876000000 1.68725288000000  74.42540102000000  7278.08124025166035
0.91527669000000 2.05700789000000 103.00000000000000  7281.75500223040581
1.16552569000000 1.69334279000000  84.56463045000000  7286.43917395174503
1.14098859000000 1.68250239000000  81.34075967000000  7288.27004186809063
0.96446195000000 1.46984925000000 103.00000000000000  7295.53703045845032
1.17662035000000 1.62402748000000  92.33993778000000  7299.56732183694839
0.91048777000000 1.53744148000000  86.69942275000000  7301.31724952161312
1.02082759000000 1.67823010000000 138.67737532000001  7313.09290841221809
1.19175136000000 1.81225504000000 100.67322145000000  7316.90731601417065
1.19394921000000 1.74901752000000 111.21839742000000  7317.49888756871223
1.12099635000000 1.95060836000000 103.19679583999999  7319.87890236079693
0.96446195000000 2.08542714000000 103.00000000000000  7322.41677695512772
0.96446195000000 1.98469786000000 120.28203894000001  7326.91294755041599
0.96446195000000 1.60156840000000  77.29581527000001  7327.71785190701485
0.88752179000000 2.02012050000000 103.00000000000000  7332.56921772658825
0.81910943000000 1.62533186000000 117.33817041000000  7333.63064716756344
1.14379258000000 1.55767067000000  96.80340409999999  7335.51839387416840
1.20554706000000 1.68888476000000  95.08721688999999  7336.55468158423901
0.96446195000000 1.47931079000000 124.75004602000000  7339.79313932359219
1.20264728000000 1.62789452000000 105.89139136999999  7347.36277507245541
0.96446195000000 2.07070578000000 107.32090291999999  7360.76306851208210
0.82017319000000 1.75705783000000  89.10758203000000  7364.99634347856045
0.90833747000000 1.70392837000000  72.76805069000000  7365.44036580622196
0.97108585000000 2.10150330000000  97.01456021000000  7369.36860601603985
0.94579852000000 2.08262760000000 103.00000000000000  7375.06971091032028
0.96446195000000 1.67121298000000  72.30697843000000  7376.13512121140957
1.18599234000000 1.68888476000000  88.56169923000000  7377.65649428963661
1.18978957000000 1.70519179000000 115.59062237000001  7381.89412611722855
1.20728070000000 1.75493250000000 103.69192102000000  7381.93683472275734
0.80923153000000 1.65498640000000 109.60020931000000  7382.27339746057987
1.09048478000000 1.68888476000000  75.55240003000000  7382.64826832711697
1.12070132000000 1.72336912000000  76.93008935000000  7382.87479269504456
0.80952860000000 1.68888476000000  96.74735544000001  7383.41282847523689
0.92708169000000 2.07202748000000 103.00000000000000  7389.02200801670642
1.21267571000000 1.66796604000000 103.00000000000000  7396.60906051099300
1.02526514000000 1.65713106000000 138.91529349000001  7397.86083064973445
1.17498739000000 1.68888476000000 119.80111626999999  7399.62603127956390
0.82663183000000 1.85360687000000 102.18414661000000  7400.62030045688243
1.08037716000000 1.68888476000000  74.76205314000001  7401.71846713125706
0.96446195000000 1.68888476000000 140.60301508000001  7403.12642847001644
1.16215569000000 1.88220093000000 103.00000000000000  7403.45692452788444
0.84572907000000 1.62116724000000  85.26661747000000  7408.40716817975044
0.90550101000000 1.61183674000000  78.31649041999999  7413.02863481640816
0.97462432000000 1.78046716000000  68.30328919000000  7420.30820536613464
0.90405569000000 2.04896421000000 103.00000000000000  7428.63886256515980
1.19998437000000 1.78683856000000 103.86080615000000  7431.11699081957340
0.99078225000000 1.96595655000000 122.46008140000001  7439.34124980866909
0.96446195000000 1.94357385000000 125.02157590000000  7439.46489132940769
1.19934000000000 1.71603449000000  90.92878825000000  7442.28410029411316
0.80749115000000 1.68888476000000 107.63857358999999  7446.50729265809059
0.95339800000000 2.08886206000000  83.16092894000001  7449.86711233854294
0.81065883000000 1.67570574000000  95.41711152000001  7450.04504846036434
1.20252222000000 1.78292282000000 103.18750032000000  7456.01313528418541
0.96446195000000 1.61914578000000  75.54423324000000  7460.10647770762444
1.16821239000000 1.68888476000000  84.51210608000000  7462.34829412400723
0.96446195000000 1.92307453000000 127.02887579999999  7468.24039055406956
1.01105549000000 1.74428828000000  69.38523985000000  7469.45914980769157
1.21608040000000 1.68888476000000 103.00000000000000  7478.14253863692284
1.13190548000000 1.94037593000000 103.00000000000000  7480.41115668416023
1.12884251000000 1.70888612000000 127.72611275000000  7481.81346920132637
0.83637350000000 1.89492156000000 103.00000000000000  7483.02224625647068
1.17030020000000 1.71609560000000 120.46677584000000  7483.68712478876114
1.09267797000000 1.68888476000000 132.81949476000000  7489.28920860588642
1.11325493000000 1.68888476000000 130.35272251000001  7489.32243792712688
0.96446195000000 1.50669661000000  89.86901997000000  7489.59016333520412
1.00715154000000 1.68888476000000  71.36310613000001  7492.30194143950939
0.96446195000000 1.81031798000000  67.77054772000000  7508.15073212981224
1.01991737000000 1.74281773000000 137.30389122000000  7508.69433771073818
1.07280415000000 1.68888476000000 134.98661102000000  7515.06951527297497
0.99016657000000 1.71138792000000 139.80046192000000  7516.77274414896965
0.81282123000000 1.70448290000000  92.41185812000001  7516.88139225542545
1.18277683000000 1.82412614000000 107.57774401000000  7517.87380391359329
1.18276080000000 1.68888476000000 118.70294410000000  7519.52099463343620
0.96446195000000 1.52426393000000 135.39196279000001  7522.74890166521072
0.96446195000000 1.49226043000000  93.19195841000000  7524.81999641656876
1.06456286000000 1.69189689000000 135.78012745999999  7542.57218748331070
1.21764227000000 1.68464960000000 103.00000000000000  7546.11083346605301
0.80840734000000 1.72492663000000  96.70684541000000  7557.36354748904705
1.20949321000000 1.69047926000000  94.50816598999999  7560.90468516945839
0.85725376000000 1.96288954000000 103.35715876000000  7575.78479103744030
1.21623438000000 1.68240570000000 106.54687316000000  7575.80947840213776
1.21675198000000 1.66688342000000 103.00000000000000  7576.80697590112686
1.20909114000000 1.68888476000000 110.97941963000000  7582.95657400786877
0.96446195000000 1.67073913000000 141.54818169999999  7585.05102251470089
0.80654463000000 1.68888476000000  98.45750980000000  7585.84928356110959
0.82868823000000 1.62560039000000  88.95748754000000  7589.07744011282921
1.14506044000000 1.91511065000000 105.44483679000000  7599.73161205649376
0.96446195000000 1.68888476000000  70.95477387000000  7602.21636277437210
0.96446195000000 1.66212846000000 141.74112255000000  7607.25748698413372
1.01480848000000 1.68888476000000 139.70066466000000  7609.63975805044174
1.19192370000000 1.69731564000000  88.24460191999999  7611.86699166893959
1.03947351000000 1.47866585000000 103.00000000000000  7612.34724904596806
0.80738407000000 1.68811028000000  96.88285127000000  7613.21641738712788
1.17617841000000 1.56884568000000 103.00000000000000  7616.14676328003407
0.96446195000000 1.54881686000000 138.48408104000001  7616.83861014246941
0.96446195000000 2.09798995000000 103.00000000000000  7624.46592624485493
1.12574705000000 1.95719618000000 103.00000000000000  7633.95361089706421
0.97639674000000 2.05842020000000 111.86493650000000  7637.72314684092999
1.21921077000000 1.67810273000000 103.00000000000000  7638.04121594130993
1.00599790000000 2.08943051000000 103.00000000000000  7639.78378038108258
1.03266585000000 1.47623876000000 103.00000000000000  7644.86708746850491
0.85209995000000 1.73379500000000  77.78014544000000  7645.01897473633289
0.95952855000000 1.46842117000000 101.29372256000001  7645.11904282867908
0.90457625000000 1.68888476000000  73.06789142000000  7652.00567929446697
0.91569603000000 1.55226827000000  83.36628847000000  7652.58054500818344
1.19119411000000 1.83069224000000 103.00000000000000  7662.86435918509960
1.13298904000000 1.68888476000000  78.76485596000001  7666.82445323467255
0.80778455000000 1.62978352000000 101.71408676000000  7667.34852530062199
1.01960360000000 1.53907518000000  84.77713334000001  7668.92243084311485
1.16050217000000 1.68888476000000  82.36782134000001  7674.84530033171177
0.86903730000000 1.61939737000000  80.63597718000000  7683.05570401251316
0.97929929000000 2.10052189000000 103.00000000000000  7685.19095265865326
0.97896259000000 1.54456547000000 138.05626569000000  7691.26953677833080
0.85227145000000 1.52505224000000  97.21087574000001  7701.36131493747234
1.21735740000000 1.69306973000000 107.95998102999999  7705.24171681702137
1.08467740000000 1.68888476000000 134.40876646000001  7706.81533268094063
0.96446195000000 1.87099651000000  67.14424388000000  7709.64375664293766
1.01690568000000 1.47937258000000  98.82366783000001  7714.35701283812523
1.12539359000000 1.70582749000000  77.03230917000000  7719.15930961072445
0.96446195000000 2.11022163000000  85.06601947000000  7729.80372931063175
1.20727928000000 1.68888476000000 113.04560374000000  7730.95058560371399
1.03849804000000 1.67674511000000 138.80002708999999  7734.67085549235344
0.96446195000000 1.96275016000000 124.44540508999999  7737.64178000390530
0.94760990000000 1.81723487000000  67.52050780000000  7739.34561412036419
1.05274076000000 1.66128192000000 137.89925173000000  7742.05633173882961
0.89203417000000 2.04443712000000 103.00000000000000  7742.68308988213539
0.96446195000000 1.45793680000000 109.83791771999999  7748.92317582666874
0.96446195000000 1.57348067000000  79.18256104000000  7750.53820115327835
1.21013976000000 1.62226222000000 104.03173414000000  7752.76514679193497
0.80543774000000 1.68888476000000  97.86205031999999  7754.45653818547726
0.98752767000000 1.47353317000000 124.07254754000000  7757.68292105197906
0.88672000000000 2.03611008000000 103.00000000000000  7762.20556966960430
0.96446195000000 1.69033885000000  70.56884516000000  7762.94237510859966
1.22284478000000 1.70066965000000 103.00000000000000  7764.15311531722455
0.81648097000000 1.67308100000000  89.85217629000000  7767.94619417190643
1.19471953000000 1.68888476000000 117.19126835000000  7773.36042441427708
1.17003312000000 1.55727363000000 103.00000000000000  7775.71831743419170
1.06171537000000 1.65116725000000 137.26629573000000  7776.23236291110516
1.07833096000000 2.03010774000000 103.00000000000000  7776.84570707380772
1.22036426000000 1.68888476000000 106.94861218000000  7778.86760379374027
0.96446195000000 2.10427136000000 103.00000000000000  7780.64896897971630
1.21755861000000 1.68888476000000 108.93698567000000  7782.74125948548317
1.09834612000000 1.65595063000000 133.50321708999999  7788.34923940896988
1.20542529000000 1.62782871000000 111.84772289999999  7788.48231317102909
0.85576882000000 1.49814751000000 112.16624032000000  7790.00152805447578
1.14435065000000 1.70018989000000  79.18991635000000  7796.36923697590828
0.83302600000000 1.90365979000000  99.03026097999999  7797.89739318192005
1.22361809000000 1.68888476000000 103.00000000000000  7798.21211580932140
1.01162960000000 1.57446997000000  79.49036857000000  7805.09338890016079
1.10993420000000 1.66512069000000 132.20003829000001  7806.05584762990475
1.16604673000000 1.89424411000000 103.00000000000000  7815.33033691346645
0.96446195000000 1.46356784000000 103.00000000000000  7820.28937079012394
0.96446195000000 1.86090299000000  66.84076742000001  7824.90387423336506
0.85020318000000 1.93656717000000 107.88362334000000  7832.15452980995178
1.20510428000000 1.69450102000000 114.50320383000000  7836.32489895820618
1.19327599000000 1.68888476000000  87.70666066000000  7837.25527907907963
1.01678070000000 1.69865375000000  70.38970396000001  7841.09694911539555
0.93293781000000 1.62432382000000 142.18805067000000  7844.30818498134613
0.91819825000000 1.51818924000000  88.00846498000000  7855.01498833298683
1.20672951000000 1.68888476000000 114.24704796000000  7858.36765879392624
1.20524222000000 1.68888476000000 114.79060712000000  7862.22162993252277
1.21198571000000 1.62042040000000 104.05417366000000  7863.78927262127399
1.22042088000000 1.65013977000000 103.00000000000000  7865.54498134553432
0.96446195000000 1.57091191000000  79.20196692000000  7867.51566658914089
1.20866526000000 1.71527987000000  90.74308488000000  7871.68852786719799
0.96446195000000 1.68888476000000 142.01005025000001  7872.95981261134057
0.96839349000000 1.46526967000000 122.01264541000000  7873.06686712801456
1.05691082000000 1.48104087000000 103.00000000000000  7883.01463995873928
1.21390509000000 1.67825535000000 111.98700363000000  7887.81445884704590
1.12579858000000 1.68888476000000 130.17016458000001  7892.18414542078972
1.19656585000000 1.68888476000000 117.45753528000000  7899.20293205976486
0.96446195000000 1.93494422000000 127.61888414000001  7900.53414404392242
1.05578365000000 1.47685906000000 105.89981529000001  7904.06554174423218
0.96446195000000 1.71215237000000  69.35719183000000  7910.23415297269821
0.98440035000000 1.72040012000000  68.93763319000000  7910.94915431737900
0.80272138000000 1.70355790000000 103.00000000000000  7912.38678464293480
0.81986594000000 1.80278478000000 111.91384454000000  7912.82892182469368
0.86002811000000 1.68888476000000  77.19145842000000  7913.06096690893173
0.84799635000000 1.68319866000000  79.49526247999999  7918.36921750009060
0.96446195000000 1.66710503000000 142.61174491000000  7919.71596428751855
1.22624283000000 1.68888476000000 102.76532117000001  7921.34885533154011
0.82783487000000 1.69117426000000  84.07806979999999  7923.82601405680180
0.80694414000000 1.70732655000000 111.50524605000000  7924.57037591934204
1.07503483000000 2.04029921000000 103.00000000000000  7926.63335591554642
1.01655854000000 1.46837618000000 103.00000000000000  7941.38969086110592
1.20421541000000 1.66538317000000  91.22969662000000  7955.87966996431442
0.96446195000000 1.68888476000000  70.25125628000001  7963.88406448066235
1.22501083000000 1.68888476000000 106.70943180000000  7970.92859326303005
1.07641583000000 1.68888476000000 136.10069806000001  7977.84317004680634
0.90336878000000 1.70459046000000  71.82543087000001  7978.57561607658863
0.91996157000000 1.62946908000000  74.96076321000000  7979.75073806941509
1.18574546000000 1.72024775000000 119.57959701999999  7991.09240561723709
0.84595900000000 1.94857979000000 103.00000000000000  7994.60117839276791
1.13731638000000 1.52795576000000 100.21922116000000  7995.49481588602066
1.19673052000000 1.68888476000000  87.62382529999999  7997.62815019488335
0.96446195000000 1.53040089000000  84.20115751000000  8000.34665741026402
1.17724232000000 1.87559927000000 104.78135469999999  8005.21266382932663
1.05056717000000 1.69573160000000 138.35346625000000  8020.00778578221798
0.92916351000000 1.57236363000000  79.53255661999999  8020.45059886574745
0.80150754000000 1.68888476000000 103.00000000000000  8022.95746947824955
0.96446195000000 1.53907888000000 138.97079833999999  8032.46956928074360
1.22856621000000 1.68888476000000 103.97135618000000  8037.79393950104713
1.19530017000000 1.57933375000000 104.42457970000000  8048.73042473196983
1.14294650000000 1.68495160000000 128.47006464000000  8066.24538341164589
0.95636372000000 1.45614596000000 117.46248466000000  8075.45621104538441
1.18691934000000 1.65825790000000 120.86037594000000  8075.47005701065063
0.84343658000000 1.68888476000000  79.71015523000000  8084.81446146965027
1.01407004000000 1.49610538000000  91.76459362000000  8084.96998001635075
0.96446195000000 1.92387026000000 129.27339301000001  8090.25808833539486
0.81261257000000 1.68888476000000  89.59251454000000  8096.13022662699223
1.22463627000000 1.68888476000000  96.14989531000001  8107.45021142065525
1.09982466000000 1.68888476000000  74.38332874000000  8108.43308791518211
0.96446195000000 1.75825682000000  67.43785244000000  8113.12824718654156
0.96446195000000 1.68888476000000 142.71356784000000  8115.81212259829044
0.80487194000000 1.68888476000000  94.84817685000000  8122.71356004476456
1.18977631000000 1.84289182000000 107.36877954000001  8134.56202489137559
1.21956179000000 1.66143310000000 111.57814030000000  8137.31141874194145
0.95567149000000 1.68888476000000 142.76056081999999  8137.96368350088596
1.23115578000000 1.68888476000000 103.00000000000000  8138.77989175915718
1.14619977000000 1.66054678000000  80.47790719000000  8141.56446646153927
0.97758830000000 1.65784031000000 143.24281525000001  8142.57127040624619
1.00694132000000 1.56239511000000  80.01679054000000  8150.57686877250671
1.12082166000000 1.68888476000000 131.73004177000001  8161.15794187784195
1.10595161000000 2.00929630000000 103.00000000000000  8163.64361113309860
0.83099766000000 1.90404126000000 103.00000000000000  8169.49091714620590
0.96992462000000 1.97087514000000 125.49070465000000  8183.14931803941727
1.22972459000000 1.68888476000000 106.76582552000001  8184.31516560912132
1.08728401000000 1.68966660000000  73.24653720000001  8189.61561325192542
1.16196380000000 1.68888476000000 125.89395847000000  8192.45525193214417
1.22493945000000 1.63810023000000 103.00000000000000  8193.74296663701534
1.19496072000000 1.68888476000000  86.23874728000000  8197.30149230360985
0.96446195000000 1.47289361000000  96.57249191000000  8197.87136322259903
1.08156374000000 1.48951610000000 101.30934839000000  8200.90771892666817
0.96446195000000 1.68888476000000 143.00000000000000  8220.71778039634228
0.80639133000000 1.72098910000000 112.63756916000000  8227.74215644598007
0.97660438000000 1.56966830000000  78.55692560000000  8237.94710840284824
0.96446195000000 1.78156807000000  66.64786601000000  8240.28354723751545
0.99565985000000 1.75300671000000 140.11320216999999  8242.92997549474239
0.96446195000000 1.56541082000000  79.02591182000000  8252.90882685780525
0.84378347000000 1.95271732000000 103.00000000000000  8259.48955510556698
0.97628290000000 1.57963670000000 142.45845689000001  8263.45761431753635
0.79975899000000 1.69021714000000 105.64599988000001  8267.06729328632355
0.98189715000000 1.45903966000000 103.00000000000000  8272.05411848425865
0.97036439000000 1.70836115000000  68.73389515000000  8281.12504212558270
0.83207798000000 1.64976778000000 128.49272169000000  8295.47851027548313
1.09759786000000 1.49116572000000 104.31223427000000  8306.61135987937450
0.96446195000000 1.96335291000000 126.69158664000000  8314.24199378490448
0.99214402000000 1.64995457000000 143.39594500999999  8315.67982123792171
1.23246644000000 1.73416338000000 103.00000000000000  8316.90696054697037
1.21118350000000 1.68888476000000  89.41401571999999  8320.10573284327984
0.99024267000000 1.84753219000000  65.59693126000001  8322.40754055976868
0.82535615000000 1.59664069000000  90.40811496000001  8323.30980046093464
1.09736276000000 1.68888476000000 135.06673115999999  8328.88790935277939
0.88260714000000 1.66025080000000  74.95458334000000  8330.48153167963028
0.99288944000000 1.70528249000000  68.75882353999999  8333.87047505378723
1.20854771000000 1.68888476000000  88.61498563000001  8334.93453496694565
0.95754183000000 1.46796103000000  97.87440192000000  8335.15245774388313
0.96446195000000 1.68888476000000  69.54773869000000  8336.21696920692921
0.83975094000000 1.51421255000000 103.00000000000000  8337.76966278254986
0.81425840000000 1.62804372000000 120.73165695000000  8342.43041627109051
0.97788563000000 1.76309301000000  66.73069171000000  8349.94669440388680
0.96446195000000 1.68888476000000 143.41708542999999  8355.13598045706749
0.96446195000000 1.45728643000000 103.00000000000000  8358.25929221510887
0.96446195000000 1.45046350000000 113.82803515000001  8363.82408301532269
1.07307083000000 1.66893732000000  73.05384757000000  8365.91073375940323
1.21248468000000 1.59753973000000 103.00000000000000  8366.61274397373199
1.00165965000000 1.67912896000000 142.79403531000000  8374.09913414716721
1.21486437000000 1.60043726000000 104.14516707000000  8378.99696239829063
1.22224975000000 1.78421393000000 104.27905013000000  8388.43170341849327
0.80662079000000 1.76684955000000  92.82926216000000  8389.76070676743984
0.94118927000000 1.45777200000000 103.00000000000000  8396.08334572613239
1.14664526000000 1.68888476000000  78.03238607999999  8404.03349164128304
1.16007634000000 1.70300443000000 126.80012540000000  8420.41459247469902
1.22073069000000 1.68888476000000 113.85529393000000  8422.21641050279140
1.21603243000000 1.68888476000000  90.08769393999999  8423.04094173014164
1.23718921000000 1.68888476000000 100.93853401000000  8427.64473061263561
1.23627588000000 1.67959443000000 100.33975541000000  8427.81751091778278
0.84376484000000 1.69399025000000  78.54510858000000  8430.73862332105637
1.19399412000000 1.66664968000000  86.24150956000000  8435.25758601725101
0.89803370000000 1.68888476000000  71.96057574000000  8443.72124007344246
1.21887891000000 1.74531309000000 111.95164323000000  8445.55516323447227
0.81154231000000 1.57193622000000 103.00000000000000  8446.46280543506145
1.18641159000000 1.68888476000000 122.64817019000000  8457.20556516945362
0.96446195000000 1.56577572000000  78.56963368000000  8457.24249011278152
0.79915684000000 1.72447450000000 102.57610345000001  8458.83174708485603
1.19475274000000 1.65654902000000  87.02457303000000  8460.67379416525364
1.23807889000000 1.68888476000000 104.20293495000000  8466.62003761529922
1.07966279000000 1.68901150000000  72.12123502999999  8469.38076347112656
0.80271287000000 1.73617795000000 109.39581099000000  8478.56742855906487
1.23869347000000 1.68888476000000 103.00000000000000  8479.75305144488811
1.04244527000000 1.69000934000000  70.25713645000000  8481.64002752304077
0.97375476000000 1.51748673000000  85.10527352000000  8496.59072601795197
0.96446195000000 1.62913582000000  72.76097738000000  8505.72899176180363
1.13260713000000 1.67325680000000  77.03857762000000  8515.06995275616646
1.20307366000000 1.57422863000000 105.44095602000000  8515.23282618820667
0.96446195000000 1.71357652000000 143.10698439000001  8518.70770786702633
1.17123137000000 1.54007766000000 103.00000000000000  8523.38990212976933
1.00414235000000 1.66169326000000 143.42495352000000  8529.52191320061684
1.18502034000000 1.68888476000000 123.25440441000001  8531.98251153528690
0.96081235000000 1.77161760000000  66.33207487999999  8534.55949826538563
0.96036119000000 1.44829285000000 112.91693560000000  8534.60163564980030
1.21482782000000 1.68915021000000  89.03152815000000  8536.04855202138424
1.04034189000000 1.47855452000000  97.38125663000000  8557.46144045889378
1.18872693000000 1.55381853000000 107.53848610000000  8558.19440500438213
1.22113645000000 1.70885569000000 114.26377991000000  8567.79533740878105
1.17563838000000 1.68888476000000  81.30343492000000  8569.46913044154644
0.80780554000000 1.73587095000000  89.32984325000000  8570.02475714683533
1.08395025000000 1.48250775000000 103.00000000000000  8582.69283105432987
0.96446195000000 1.68888476000000 144.12060302000000  8604.73444791138172
1.06784118000000 1.47547184000000 103.00000000000000  8606.20162212848663
0.99757175000000 1.68888476000000  68.98682699000000  8625.74267984926701
0.79738976000000 1.68888476000000  99.38003286000000  8627.76260729134083
0.81214457000000 1.56257177000000 103.95064216000000  8628.61627955734730
1.15207415000000 1.67092273000000 129.41957056000001  8646.28384889662266
1.20846723000000 1.69791571000000  86.49567130000000  8647.38061204552650
1.08470472000000 1.65180558000000  74.18829528000001  8648.90703228116035
0.99247317000000 1.58396558000000  76.31457267000000  8656.19530449807644
0.87520534000000 1.72678821000000  72.15730718000000  8664.14658933877945
1.23260765000000 1.77819447000000  99.21096763000000  8673.13447514176369
0.96199896000000 1.61813828000000 145.05337832000001  8674.54876062273979
1.23136496000000 1.66660818000000 112.01022299000000  8676.53093686699867
0.80005035000000 1.64894510000000  97.40443328000001  8684.23144021630287
1.00249710000000 1.66651350000000 143.90160209999999  8685.05035035312176
0.93735958000000 1.50390779000000 136.36473712000000  8693.03698387742043
1.21397320000000 1.69355516000000  87.70139632999999  8695.73979975283146
0.94123123000000 1.59861742000000  75.21611655000000  8708.29116389155388
1.22899489000000 1.70440646000000  91.44226586000001  8714.66007217764854
1.17427150000000 1.68888476000000 125.99180858000000  8716.41440820693970
0.94538759000000 1.68888476000000  69.20168653000000  8718.83313849568367
1.10645310000000 1.69282971000000 135.22896112000001  8721.52327722311020
0.96446195000000 1.68888476000000  68.84422111000001  8724.40268741548061
1.21478674000000 1.83481542000000 102.32030820000000  8728.16792517900467
1.11741536000000 1.49729371000000 103.00000000000000  8734.38158491253853
0.90693426000000 1.68888476000000  70.80200327000000  8738.19448842108250
1.21527498000000 1.81652150000000 107.07933590000000  8743.72593811154366
1.13564665000000 1.51802156000000  98.23817550000000  8745.95442393422127
0.90176910000000 1.62246511000000  75.02673846000000  8753.27533444762230
1.19980568000000 1.87066895000000 103.00000000000000  8755.98549309372902
0.96446195000000 1.48364727000000  91.40971687000000  8757.13033588230610
1.21546648000000 1.58725847000000 103.00000000000000  8765.56993302702904
1.01607572000000 1.68888476000000 143.01072307999999  8768.83076329529285
1.24206753000000 1.68888476000000  97.84864592000000  8769.79585693776608
1.20776286000000 1.69714956000000 119.51213693000000  8773.96685661375523
1.24082614000000 1.71470111000000  96.17376934000001  8774.37108953297138
0.92009954000000 1.59463316000000  76.20690387000000  8777.41952259838581
0.83895340000000 1.95842614000000 103.00000000000000  8777.69195494055748
0.87488238000000 1.47244135000000 104.50559283000000  8778.81405627727509
0.97282490000000 1.52555686000000  83.13597407000000  8786.13754405081272
1.21404792000000 1.65870999000000  89.40555582000000  8788.94991730153561
1.24174801000000 1.65306289000000 103.64738646000001  8791.16328638792038
0.93030134000000 1.62369747000000  73.41385077000000  8793.13104526698589
0.96446195000000 1.54260551000000 141.85860794000001  8796.03613464534283
1.07526710000000 1.68888476000000 138.74848410000001  8803.12013709545135
1.23504977000000 1.68888476000000 111.71984997000000  8803.16967310011387
1.15878067000000 1.95175676000000 103.38717139000001  8808.53637674450874
1.14696415000000 1.52767965000000  97.27391720999999  8808.63420231640339
1.12108523000000 1.49802330000000 103.00000000000000  8815.04798555374146
1.20931155000000 1.85151259000000 103.12531778000000  8815.88969087600708
0.79534612000000 1.68888476000000 101.09205818000000  8817.89543467760086
1.24623116000000 1.68888476000000 103.00000000000000  8822.05983228981495
1.18598751000000 1.54450350000000 105.99474576999999  8826.10984121263027
1.24623001000000 1.69641829000000 103.68689114999999  8827.80328865349293
1.23911671000000 1.75365904000000 104.72913831000000  8832.13210201263428
1.24115296000000 1.75079548000000 103.00000000000000  8834.29269012808800
1.24377018000000 1.65919301000000 103.00000000000000  8836.51689432561398
1.21745975000000 1.68888476000000 117.68008580000000  8845.57805866003036
0.96446195000000 1.68888476000000 144.82412059999999  8849.69794268906116
1.22357558000000 1.65512387000000 115.91390040000000  8853.51036608219147
1.08296168000000 1.68888476000000  71.43276272999999  8855.41085603833199
0.96446195000000 1.74282410000000  66.42199787000000  8877.48950700461864
1.19750964000000 1.88197009000000 103.00000000000000  8880.02324713766575
0.96446195000000 1.52333449000000  83.26500565000001  8890.55648820102215
0.96446195000000 1.71314233000000  67.47194066000000  8894.96171647310257
0.96446195000000 1.72543836000000 143.73525028000000  8897.14643767476082
0.96446195000000 2.01243427000000 124.48195258000000  8898.22840684652328
0.88633591000000 1.68611939000000  72.15954600000001  8908.03272092342377
0.96446195000000 1.51255057000000  84.99240119000000  8915.19000385701656
0.81023578000000 1.79436082000000 112.90413178000000  8915.38493609428406
1.19738190000000 1.68888476000000  83.48554433000000  8915.65689939260483
0.96446195000000 1.53636281000000 141.69069442000000  8916.78000184893608
0.96711431000000 1.55772655000000  78.53011386999999  8917.94701696932316
1.09726778000000 1.48389772000000 103.00000000000000  8923.14245060086250
0.96446195000000 1.48139639000000 133.06523435000000  8935.62646330893040
1.24899587000000 1.68793827000000 103.00000000000000  8938.17535687983036
1.01493054000000 1.44959558000000 112.39406384999999  8948.50812375545502
0.80470600000000 1.68888476000000 117.99662644000000  8958.37710307538509
0.80253363000000 1.73904090000000 113.15836643999999  8961.39054912328720
0.79396985000000 1.68888476000000 103.00000000000000  8961.63104815781116
1.22945769000000 1.60618505000000 101.96043702000000  8966.50561018288136
1.05038785000000 1.46325125000000 104.19712603000001  8966.51043766736984
1.22899751000000 1.72858164000000  89.06695442000000  8986.58408318459988
0.96415448000000 1.78971079000000  64.98235355000000  9000.13640874624252
0.80415922000000 1.61361838000000 117.15663655000000  9009.54418928921223
0.96446195000000 1.74487273000000  66.10745448999999  9010.74195976555166
1.23400555000000 1.61211476000000 103.00000000000000  9011.95642636716366
1.23333540000000 1.79828771000000 103.00000000000000  9015.28959025442600
0.95469724000000 1.78297144000000  65.23626446999999  9021.89308178424835
1.07343656000000 1.47239669000000 103.00000000000000  9025.86861388385114
0.80759458000000 1.68888476000000 120.21257387999999  9029.90946015715599
0.96446195000000 1.72818070000000 144.01835342000001  9032.40798901021662
0.80316385000000 1.74311586000000 113.90005321000000  9041.02084253728390
1.18934827000000 1.54590625000000 103.00000000000000  9042.26358006894588
1.18294664000000 1.68045096000000  81.11644963000001  9047.01341488957405
1.20915250000000 1.68888476000000 120.96452947000000  9085.92028617858887
0.79314788000000 1.68888476000000 104.92712044000000  9086.66467954218388
0.96446195000000 1.68888476000000 145.52763819000000  9094.16076040267944
1.17051460000000 1.68888476000000 128.07286690000001  9098.59696222841558
0.85802687000000 1.68888476000000  74.81160679000000  9100.07005538046360
1.19564023000000 1.68888476000000 123.80736150000000  9107.06120997667131
1.25019514000000 1.70225374000000 106.54728157000000  9109.89681483805180
0.96446195000000 1.57553055000000 145.13078965000000  9110.63283619284630
0.96446195000000 1.61340374000000 146.29762199000001  9111.08660940825939
1.19286713000000 1.68888476000000 124.37839812000000  9115.29361553490162
0.96446195000000 1.68888476000000  68.14070352000000  9122.16343437135220
1.17752246000000 1.68888476000000 127.10124587000000  9129.52544751763162
1.18375683000000 1.68888476000000 126.09160145000000  9137.57326756417751
1.25333876000000 1.69060467000000 103.00000000000000  9140.35784290730953
0.98929929000000 1.44365934000000 114.60945196999999  9142.17135111987591
0.94048011000000 1.67744806000000  69.14602232000000  9143.25891928374767
1.24113868000000 1.68888476000000  92.98380285000000  9145.64054904877958
0.83461964000000 1.53248026000000  94.71550348000000  9147.99523976445198
1.20127670000000 1.55587938000000 103.00000000000000  9148.36946523189545
1.25123901000000 1.68888476000000 106.94979881000000  9160.68772479891777
0.79490875000000 1.74295811000000 103.00000000000000  9161.62597891688347
1.25376884000000 1.68888476000000 103.00000000000000  9163.59737242758456
0.85502682000000 1.71675022000000  74.04086761000001  9163.88091690838337
1.22148467000000 1.84843422000000  99.25613328999999  9165.29257474839687
1.20210188000000 1.55640554000000 103.00000000000000  9175.85635758936405
0.99359483000000 2.16746636000000 100.51873817000001  9188.62014190852642
0.88110247000000 2.08410518000000 102.52346751000000  9192.20682232082072
0.96844811000000 1.84409379000000  63.77506822000000  9195.26365798711777
1.21932826000000 1.85277968000000 100.93436026000001  9195.58409488201141
0.96446195000000 1.68888476000000  68.00000000000000  9196.74497482180595
0.99693287000000 1.73491572000000 143.56648779000000  9197.05229048430738
0.96446195000000 1.68310914000000 146.00764680000000  9198.55795696377754
1.24413182000000 1.68888476000000 111.63474370000000  9203.33602042496204
0.96446195000000 1.44569047000000 104.71964644000001  9205.49598735570726
1.21668275000000 1.65372632000000  88.24989474000000  9206.35183475911617
1.12418948000000 1.48944817000000 107.02395550999999  9206.39670634269532
0.85112281000000 2.01459477000000 102.35370666000000  9211.21693994104862
0.79633710000000 1.61386003000000 103.00000000000000  9219.60376632213593
0.82089829000000 1.90845701000000 103.00000000000000  9225.51188482344151
0.87468056000000 2.06308866000000 105.35126217000000  9226.32833456993285
1.04467350000000 1.64435013000000  71.49831174000001  9227.27808311581612
0.79209693000000 1.69829825000000 103.00000000000000  9235.83687202632427
1.25568040000000 1.69884529000000 102.22505468999999  9243.39237505197525
0.96446195000000 1.79035206000000  64.47788305000000  9249.38612990081128
0.96446195000000 1.55746830000000 144.52159839999999  9253.81705567240715
1.25529517000000 1.67551007000000 103.00000000000000  9267.02338929474354
1.25572477000000 1.68068056000000 103.00000000000000  9268.47108933329582
0.96530041000000 1.57300228000000 145.50105246999999  9269.18322649597940
1.15804522000000 1.68888476000000 130.59806277999999  9278.44033531844616
1.03979965000000 1.73708325000000 141.56484821999999  9303.21337543427944
1.17103289000000 1.71525991000000  77.00458514000000  9306.04509381950083
1.21900819000000 1.67151060000000  86.92241624000000  9308.68840369582176
1.25155571000000 1.75673842000000 100.20057063000000  9320.12664709985256
0.81740877000000 1.64506863000000 127.09802252999999  9320.59906117618084
0.96446195000000 1.71137944000000  66.77774280000000  9322.08321717381659
0.95985852000000 1.66848967000000  68.88999560000001  9324.10112603008747
1.25404758000000 1.73928089000000 103.00000000000000  9325.78714528679848
1.11721086000000 1.68888476000000  72.66925506000000  9329.24044431746006
0.96446195000000 1.68888476000000 146.23115577999999  9339.43333892524242
1.12293288000000 1.71365725000000  71.94332987999999  9348.28552213311195
1.10880558000000 1.68888476000000  71.97857528000000  9349.64115767180738
1.24011757000000 1.61601604000000  99.82191994999999  9363.41647654771805
1.21776278000000 1.68243258000000  85.70381693000000  9369.16163150966167
0.86839787000000 1.68888476000000  72.92960819000000  9370.30778641998768
0.82007206000000 1.91878202000000  99.23324547000000  9373.36984497308731
1.17593194000000 1.52222408000000 106.96943468000001  9382.86487288773242
1.18399279000000 1.92888276000000 104.15784106000000  9392.68216989934444
1.24198709000000 1.61086543000000 103.00000000000000  9395.42005529999551
0.79559854000000 1.68888476000000  93.69872460000001  9396.49634271859941
1.22477651000000 1.71016980000000 118.51347516000000  9400.80731764435768
0.86412881000000 1.47180869000000 104.35671803000000  9411.96028469502744
0.79273148000000 1.71941467000000 107.52548738000000  9415.76370224356833
0.84756893000000 2.01047779000000 103.00000000000000  9417.84476533531961
1.14933644000000 1.69255583000000 132.26391409999999  9428.63711769878864
1.17986171000000 1.68888476000000 127.87125109000000  9433.20804129540738
1.25857837000000 1.68888476000000 105.59793732000000  9433.94207713007927
0.93028622000000 1.44791845000000 103.00000000000000  9435.10428477823552
1.20684844000000 1.70816372000000 122.67361957999999  9444.25671899318877
1.16727375000000 1.95971377000000 104.76178441000000  9450.98552161455154
0.79534376000000 1.70148348000000 112.99278357000000  9453.12233220040798
0.85628165000000 1.71115345000000  73.42598123000000  9453.23643244802952
1.23500716000000 1.70552643000000 116.37745386000000  9477.65276068449020
1.20695272000000 1.68888476000000 123.32142037000000  9483.66687250137147
1.25323038000000 1.76308860000000 103.00000000000000  9487.61385560035524
1.20551955000000 1.55196415000000 103.00000000000000  9495.57424062490463
1.26130653000000 1.68888476000000 103.00000000000000  9506.03381909430027
0.96446195000000 1.68888476000000  67.43718593000000  9508.78137391805649
1.23881368000000 1.79625764000000 107.59805436000001  9519.24488474428836
0.96446195000000 1.44472362000000 103.00000000000000  9521.36247472465038
0.94304841000000 1.57070718000000  76.29859490000000  9531.50077107548714
1.22395162000000 1.69337075000000  85.65607639000000  9535.03002841770649
0.96316444000000 1.44019986000000 106.58252453000000  9537.23828913271427
1.23985615000000 1.68888476000000  89.74408314000000  9541.13613824546337
0.96446195000000 1.70909926000000  66.48721528000000  9541.57605856657028
0.79791829000000 1.78943270000000  94.29519358000000  9550.77611754834834
1.00593452000000 1.73980036000000  65.26970990000000  9555.90735480189142
1.25519812000000 1.76106748000000 103.00000000000000  9558.61981301009655
0.97286142000000 1.47092324000000 132.81139567000000  9564.85910560190860
0.79046451000000 1.68888476000000  98.63544003000000  9571.20894305408001
0.96446195000000 1.68888476000000 146.93467337000001  9585.35429495573044
0.82912640000000 1.95618218000000 103.00000000000000  9593.66902960836887
1.26103022000000 1.72563761000000 104.13857502000000  9597.50703738629818
1.21167806000000 1.71650150000000 122.13205302999999  9597.75781981647015
1.08124455000000 1.68888476000000 140.54910665000000  9603.93059971928596
1.24502184000000 1.68888476000000 114.65704993999999  9604.75504983961582
0.96446195000000 1.56063088000000  76.89319356000000  9608.55829118192196
1.16188080000000 1.68888476000000 131.29342810000000  9623.83852373063564
0.99487364000000 1.64625581000000  69.56045464000000  9627.33724316954613
0.96072311000000 1.75464590000000  64.74835093999999  9629.20829625427541
1.07092143000000 1.68888476000000  69.12629941000000  9630.39185692369938
0.85677546000000 1.70698758000000  73.13961252000000  9633.16199800371942
0.79467897000000 1.77853757000000 103.00000000000000  9636.43913906812850
1.26446195000000 1.68888476000000 103.00000000000000  9641.55488882958889
0.84297861000000 1.68888476000000  75.99014433000001  9649.44109264016151
0.96446195000000 1.44907326000000 125.70467247000001  9649.59958587586880
1.23585263000000 1.68888476000000 117.68864741000000  9657.89262883365154
0.96022601000000 1.68888476000000  67.25852232000000  9658.83503401279449
1.26457032000000 1.67945284000000 103.00000000000000  9670.35425613820553
0.87627810000000 1.68888476000000  71.48291368000000  9674.78483529388723
0.96446195000000 1.43602255000000 111.09378012000001  9682.10176511108875
0.79025756000000 1.64678439000000 100.36872655000001  9703.30510734021664
0.93270470000000 1.59076391000000  74.34775011000001  9710.41272677481174
1.00848018000000 1.74850811000000 144.00893518999999  9725.92513573169526
1.25303213000000 1.78956082000000 100.02620812000001  9727.59784452617168
1.25811144000000 1.68303576000000 110.59390802000000  9729.49085216224194
1.19197304000000 1.68618516000000  79.70442842999999  9729.65214765072051
1.25411086000000 1.64715471000000 111.38247699999999  9730.91921743750572
1.09133052000000 1.67695603000000  70.59681878000001  9734.75151701271534
0.97090900000000 1.56908280000000  75.70909093000000  9735.89716021716595
1.02052323000000 1.60476730000000  72.83409541000000  9736.77138833701611
1.25333330000000 1.78616953000000 103.00000000000000  9763.06215630471524
1.26560411000000 1.68888476000000 105.84260583000000  9763.50608749687672
1.22344462000000 1.68888476000000  84.69257313000000  9765.06239481270313
0.84503874000000 2.00819259000000 105.54455722000000  9776.81760825216770
1.25409091000000 1.78660329000000 102.19962631000000  9777.20909252762794
0.86712302000000 1.70001289000000  71.80160026999999  9780.00699949264344
1.25635136000000 1.62580069000000 103.00000000000000  9780.78466895222846
1.24605549000000 1.68888476000000 115.61109050000000  9788.85395339131355
1.13290516000000 1.68888476000000 135.61566350000001  9795.40061692893687
0.95904272000000 1.68888476000000  67.04408789999999  9796.73542748391628
1.20119890000000 1.92260320000000 101.25921518000000  9799.81719188392162
1.01510808000000 1.60880598000000  72.26333984999999  9811.05884692072868
0.79369845000000 1.69696814000000 114.39188419000000  9812.77863928675652
1.11805333000000 2.05528541000000 104.64591686000000  9815.37939624488354
0.95835598000000 1.55820232000000  76.83213542000000  9828.91044920682725
0.96446195000000 1.68888476000000 147.63819094999999  9831.31550507247448
1.00298692000000 1.62902926000000  70.44903954000000  9831.75753493607044
1.26817000000000 1.71216113000000 103.00000000000000  9832.04411026835442
1.23419707000000 1.57858426000000 103.00000000000000  9836.05538505315781
0.90381971000000 1.66379492000000  70.30011181000000  9836.92469170689583
1.23376848000000 1.57581552000000 108.44174486000000  9838.03754301369190
1.19891271000000 1.69712345000000 126.17720509000000  9842.00315949320793
1.15317255000000 1.68888476000000  74.53497178000001  9850.95228430628777
0.78741541000000 1.67045084000000 103.00000000000000  9851.06328640878201
0.92277143000000 1.72306816000000  66.54073789000000  9856.43803615867910
1.26168693000000 1.76184093000000 103.00000000000000  9860.25636170804319
0.91074594000000 2.15838245000000 103.00000000000000  9862.87694136798382
0.95603836000000 1.62290044000000  70.92305322000000  9867.69367259740829
0.99058081000000 1.47067464000000  91.80972079999999  9880.92210902273655
0.89865684000000 1.68906537000000  69.26855045000001  9882.57003660500050
1.24219386000000 1.82943691000000 103.00000000000000  9883.04921990633011
0.83677067000000 1.70403749000000  75.99339003000000  9891.27742338180360
1.25910729000000 1.68888476000000 111.83794724000001  9898.27120657265186
0.96513671000000 1.43368246000000 113.69065463000000  9901.26811012625512
0.94641058000000 1.81675713000000  63.11464969000000  9905.19940491020861
1.26627158000000 1.70633400000000  96.50464825000000  9909.59503534436226
0.95603254000000 1.49432644000000  86.02395559000000  9911.36037047207355
0.95861885000000 2.11948503000000  69.40581496000000  9912.63952831923962
1.08538245000000 1.48171282000000  95.76433776000000  9926.94845020771027
1.24713320000000 1.64488036000000  92.75889481000000  9931.30702628195286
0.96446195000000 1.68888476000000  66.73366833999999  9933.55836230516434
1.11197309000000 1.69451855000000  70.54091098000001  9934.98201285302639
0.91506764000000 1.56525999000000  77.16091082000000  9937.39923703670320
0.96446195000000 1.61450277000000 148.82872237999999  9943.24187862873259
1.25890908000000 1.62217183000000 103.23467334000000  9947.75813575088978
0.96446195000000 1.68888476000000 148.00000000000000  9951.59254367649555
0.78986658000000 1.72507142000000 108.96512487000000  9956.21844427287579
0.79488465000000 1.69291977000000  90.66760781000001  9957.08746057748795
0.96446195000000 2.19849246000000 103.00000000000000  9958.61148044466972
0.96351617000000 1.49009461000000  86.69012879000000  9970.46732850372791
1.20864523000000 1.69896007000000 124.91628430000000  9974.40436632931232
1.00226672000000 1.63628310000000  69.68166711000001  9975.83360324800014
0.78643216000000 1.68888476000000 103.00000000000000  9979.56187668442726
1.17243041000000 1.51213470000000 103.00000000000000  9981.36640724539757
0.96446195000000 2.16141485000000 111.55380513999999  9989.10860905051231
1.14671276000000 1.68888476000000  73.50384249000000  9991.16021193563938
1.27047465000000 1.70392938000000 105.73632082000000  9997.06752686202344
0.94367471000000 1.68276737000000 148.17363817000000  9997.35408863425255
1.16090462000000 1.68888476000000  74.89871955000000 10004.37281492352486
1.16042487000000 1.69014057000000 132.78879050000000 10016.29099893569946
1.05628316000000 1.67328466000000  68.57202927000000 10019.56881859898567
1.12338486000000 2.05740067000000 104.21946461000000 10021.32733966410160
1.15500283000000 1.68888476000000  74.22565509000000 10028.24563454091549
0.96446195000000 1.70557168000000  65.80814296000000 10029.72974041104317
1.27074519000000 1.66248212000000 103.00000000000000 10036.70431458950043
0.84553558000000 1.48133307000000 103.00000000000000 10036.72916266321954
0.96446195000000 1.68888476000000 148.34170854000001 10078.47183872759160
1.14313481000000 1.70603484000000  72.11950003000000 10079.25954777002335
0.82348674000000 1.95478784000000 103.00000000000000 10088.58761997520742
0.78603554000000 1.68888476000000 100.37363916000000 10098.96870489418325
0.93887063000000 2.21532063000000  90.42137221999999 10104.42731180787268
0.83054555000000 1.68888476000000  77.36215701000000 10118.03640618920326
1.25173022000000 1.72274284000000 114.98994390999999 10125.98442499339581
1.24267375000000 1.84142640000000 103.20088889000000 10128.41669397055921
1.27305364000000 1.66459904000000 103.00000000000000 10130.50292184948739
0.97526069000000 1.99041089000000 131.22138946999999 10131.71090319752875
1.26959530000000 1.64522099000000 103.00000000000000 10132.22841805219650
1.22574584000000 1.70281900000000  82.89887603000000 10135.23820415139198
1.27200693000000 1.65898983000000 101.80613122000000 10136.02459721267223
1.27183275000000 1.74309720000000 101.28490384000000 10141.48591284454051
1.26159856000000 1.78701524000000 103.00000000000000 10142.49521897733212
1.07772918000000 1.70525315000000  67.60114746000001 10143.34943579137143
0.96446195000000 1.53369969000000 145.41389104000001 10144.68524193763551
1.26278443000000 1.78798382000000 100.01975621000000 10146.06571902334872
0.96446195000000 1.43844221000000 103.00000000000000 10150.01147982477960
0.99534847000000 1.68888476000000  66.24637855000000 10152.37635155021962
0.86830020000000 2.09453381000000 103.00000000000000 10152.65373352169991
1.03493339000000 2.17699541000000 103.00000000000000 10158.27350664138794
1.00313371000000 1.68888476000000  66.28779036000000 10167.48275780677795
0.92848846000000 1.48645739000000  87.75831582000001 10168.49735899269581
1.12565173000000 1.68888476000000 137.60331481000000 10177.16965013742447
0.84934524000000 2.04532522000000 103.00000000000000 10179.82250204682350
0.83013656000000 1.98318537000000 103.00000000000000 10183.19818828999996
1.02799607000000 1.70813411000000 145.81736759000000 10185.95644690096378
1.26649527000000 1.65286566000000  97.20790277000000 10187.19348515570164
0.96361283000000 2.15630121000000  71.22710515000000 10190.88471341133118
1.15767149000000 1.50501712000000  99.64709870999999 10198.73274223506451
1.00032594000000 1.69625177000000  65.84189340000000 10204.58405107259750
1.23502389000000 1.68888476000000  85.02140966000000 10204.97245192527771
1.21375089000000 1.54315788000000 103.00000000000000 10210.11118526756763
1.27557638000000 1.66692373000000 103.00000000000000 10229.72000321746054
1.13667803000000 1.66784285000000  73.20411184000000 10230.17928415536880
1.05029018000000 1.68888476000000  67.11275946000001 10237.58145770430565
1.26512443000000 1.78233714000000 103.00000000000000 10252.09340827167034
0.96446195000000 2.11705297000000 119.64900912000000 10259.10465176403522
1.14769214000000 1.68888476000000  72.89146168000001 10265.45234207808971
0.96446195000000 1.51062098000000 143.13632996000001 10274.13159911334333
1.26953612000000 1.68888476000000  94.51502145000001 10276.52899864315987
1.12035697000000 1.68888476000000 138.55360317000000 10280.82081910967827
1.24118955000000 1.71633550000000  84.91698674000000 10285.08557735383511
0.78996241000000 1.77474107000000 105.26426992000000 10305.35130397975445
0.79917827000000 1.68888476000000 121.68116365000000 10309.15996851027012
0.96446195000000 1.68888476000000 149.04522613000000 10325.32104001939115
1.26238661000000 1.70803190000000 113.72008903000000 10327.19048987329006
1.18977782000000 1.51906224000000 103.00000000000000 10335.64786168932733
1.26741875000000 1.62220165000000 103.00000000000000 10337.56451433897018
0.82234158000000 1.96036056000000 103.00000000000000 10351.03462979197684
1.26501168000000 1.79124570000000 103.00000000000000 10358.43609651923180
0.78603225000000 1.74403064000000 100.66460596000000 10358.83737996220589
0.96446195000000 1.68888476000000  66.03015075000000 10360.39259375631809
1.21573971000000 1.70243309000000  80.21764188000000 10370.25542908906755
1.27319378000000 1.63772637000000 103.00000000000000 10378.81002588569936
0.78458399000000 1.70583367000000 106.58245960000001 10379.08265684545040
0.79440832000000 1.81321234000000 105.76492412000000 10402.08201916515827
1.24943240000000 1.83697504000000 104.10672862000000 10411.69969111680984
1.27048169000000 1.65036766000000  97.03681129000000 10412.80870059132576
1.17253039000000 1.69437858000000 132.43421139000000 10419.61561246216479
1.23404957000000 1.66971227000000  84.96934483000000 10422.18965575098991
0.80439179000000 1.63841089000000  86.77599067000000 10432.94812609255132
1.28222941000000 1.68888476000000 103.53516181000001 10463.56139415502366
0.96720590000000 2.09354176000000  65.08367800000001 10485.04846879840079
1.06051477000000 2.17565695000000  99.11219334000000 10486.37340548634347
1.28091156000000 1.73084199000000 100.40721501000000 10487.79344254731950
1.25824286000000 1.82157755000000 103.00000000000000 10488.79107862710953
0.86635965000000 1.72136985000000  69.70873171000000 10489.82043704390344
0.96446195000000 1.62171354000000  69.84907088999999 10491.82031345367432
0.96446195000000 1.64410240000000  68.31708651000000 10493.21104361116886
1.15827149000000 1.49440883000000 103.00000000000000 10493.67955292761144
0.96446195000000 1.44497730000000  97.79450595000000 10496.40346804261208
1.22287661000000 1.90980784000000 101.95725390000000 10508.38478857278824
0.93654084000000 1.74557316000000  64.08643118000001 10521.20134262740612
0.97521815000000 1.44396535000000  98.26427579000000 10523.31010086834431
1.28391960000000 1.68888476000000 103.00000000000000 10526.27175715565681
1.12692428000000 1.48220486000000  99.88655221000000 10536.65894567966461
1.27219162000000 1.62236045000000 103.00000000000000 10551.15501458942890
1.07757265000000 1.68888476000000 143.65326422000001 10555.87229722738448
0.84038665000000 2.03975430000000 100.62425718999999 10568.79342310130596
0.96446195000000 1.68888476000000 149.74874371999999 10572.12373675405979
1.16632795000000 1.49748757000000 103.61824949000000 10574.79971252381802
1.07938209000000 1.70752399000000 143.04772753000000 10577.17704774439153
1.20228197000000 1.68888476000000 128.74629246000001 10614.18005363643169
1.24983844000000 1.85088733000000 103.00000000000000 10617.47205382585526
1.25271503000000 1.68888476000000 118.98844735000000 10633.33994694053945
1.27534719000000 1.72160136000000 110.61215642000001 10641.63833409547806
0.82194825000000 1.68888476000000  78.02768836000000 10645.38666038215160
0.79463639000000 1.83974573000000 101.88231340999999 10677.03600743412971
1.23630111000000 1.68888476000000  83.15131384999999 10685.79339241981688
1.10887389000000 1.68888476000000  68.92823516999999 10689.57627634703931
1.08365048000000 1.71686321000000  66.25661242000000 10692.20895352959633
1.11131174000000 1.46416526000000 105.21552681000000 10705.14219190180484
1.11261402000000 1.71565910000000 140.04137921000000 10725.52318191528320
1.04175802000000 1.66228651000000  67.43221386000000 10731.57509361207667
1.26483841000000 1.59395928000000 105.33033678000000 10734.19803994894028
0.91799108000000 1.46724676000000  91.26485466000000 10738.07407011091527
0.96936874000000 1.62720211000000  68.96945642000000 10757.91897636651993
1.21475630000000 1.68888476000000  79.27280027000000 10765.36333480477151
0.78795083000000 1.74524616000000 112.08358910000000 10777.16221098601818
1.26182501000000 1.68888476000000  88.25662178000000 10777.99854767322358
1.27759210000000 1.77615954000000 104.17006314000000 10783.64941571652889
0.96446195000000 1.68888476000000  65.32663316999999 10793.74666184186754
0.96446195000000 1.43216080000000 103.00000000000000 10794.10247701406479
0.89533005000000 1.43908425000000 105.29917836000000 10818.69222144782361
1.11224783000000 1.68888476000000  68.84117008000000 10825.38976663351241
1.04088731000000 1.66636561000000  66.98985933000000 10825.93442144989967
1.09622617000000 1.67161247000000  68.85385931000000 10833.15581299364567
1.28488280000000 1.75316583000000 103.00000000000000 10838.65508429705915
1.19394698000000 1.68888476000000  76.20874375000000 10845.69718438386735
0.82683537000000 2.00736085000000  98.71897468000000 10857.81416073441687
1.17526114000000 1.50037933000000 102.40845525000000 10864.13832375407219
1.29075279000000 1.67829701000000 103.00000000000000 10871.60087573528472
1.29145729000000 1.68888476000000 103.00000000000000 10880.65948934853259
0.98004626000000 1.99084426000000 133.76710987999999 10884.97226765751839
1.26452488000000 1.70590914000000  87.64418067000000 10892.29207193851653
1.12277160000000 1.68888476000000  69.36257864000000 10897.57396923005581
0.94765435000000 1.45849944000000 135.05878236999999 10899.02819590270337
1.29189814000000 1.70043766000000 103.57164824000000 10900.07157899439153
1.27750170000000 1.71189200000000  91.33594356000000 10906.04302410781384
0.96446195000000 1.56822583000000  73.78311990000000 10907.13207058608350
1.26516957000000 1.68888476000000  88.37600556000000 10909.10688948631287
0.93942294000000 1.80434808000000  61.73844686000000 10918.18751524388790
0.81812247000000 1.68888476000000  78.27755864000000 10926.40774284303188
0.78237460000000 1.66940676000000  96.63509227999999 10939.30615615844727
1.20639749000000 1.52523329000000 100.70303490000001 10939.75156074762344
1.29206393000000 1.68888476000000 105.50642116000000 10955.08402851223946
0.98526705000000 1.43138019000000 103.00000000000000 10979.08107231557369
1.29287525000000 1.67209761000000 103.00000000000000 10986.44600334763527
1.07685979000000 1.45548200000000 100.10406636000000 10992.01722104847431
0.81526699000000 1.95762233000000 103.00000000000000 11003.16215002536774
1.19484992000000 1.68888476000000 131.32176679000000 11011.30590489506721
0.98803951000000 1.51213934000000 145.11400351000000 11011.84575231373128
1.27090985000000 1.66110103000000 116.47177487000000 11025.58779464662075
1.11279033000000 1.69788408000000 141.35592907000000 11030.01769176125526
1.26174438000000 1.68888476000000  86.76963705000000 11047.48852223158065
1.24096252000000 1.89813062000000 101.53644322000000 11061.70314694941044
1.28117152000000 1.63835837000000 111.84282600000000 11064.82780116796312
0.96446195000000 1.68888476000000 151.15577888999999 11064.83409793674764
1.29508116000000 1.68888476000000 100.64422256000000 11065.09455892443657
0.77889447000000 1.68888476000000 103.00000000000000 11066.34829178452310
0.95672705000000 1.58358090000000  72.12804273000000 11069.62229882180873
1.28443291000000 1.77384739000000 104.26393964000000 11083.32726696133614
1.29549929000000 1.68689003000000 104.46960278000000 11085.04048673808575
1.28804454000000 1.68888476000000  94.87090037999999 11086.92182065546331
1.22584748000000 1.68888476000000 126.67200185999999 11097.23407274484634
1.06921171000000 1.68888476000000 145.91467517000001 11106.95255208015442
0.77920873000000 1.71407888000000 103.00000000000000 11111.95645040273666
0.82991450000000 1.47697821000000 108.65480370000000 11116.11730742454347
1.28041338000000 1.79204797000000 104.58269333000000 11146.23281227052212
0.78334597000000 1.68888476000000  93.04746102000000 11155.51013757288456
1.29168253000000 1.64034640000000 103.00000000000000 11187.42344120144844
0.79271227000000 1.85115568000000 103.00000000000000 11208.65101538598356
1.27095340000000 1.58835318000000 103.00000000000000 11213.68588161468324
0.97968284000000 1.68888476000000  64.51666924000000 11215.00925436615944
1.29899497000000 1.68888476000000 103.00000000000000 11218.17467620968819
1.27731881000000 1.81255139000000 103.28267682000001 11224.58670216798782
0.89243821000000 1.43906689000000 103.00000000000000 11237.45467448234558
1.29085200000000 1.69623090000000 110.78145001000000 11240.80713024735633
0.96446195000000 1.68888476000000  64.62311558000000 11246.60212938487530
0.92158783000000 1.56557974000000  74.51563815000000 11252.99398405849934
1.23775051000000 1.54325402000000 103.00000000000000 11257.06434930860996
0.98262701000000 1.47756524000000  86.28147238000000 11258.81336539983567
1.29290697000000 1.64947470000000 108.75191139000000 11273.28785020112991
0.96446195000000 1.45470390000000  91.77225149000000 11278.25239893794060
0.82089090000000 1.69854155000000  76.36159848000000 11283.40536148845968
0.79036027000000 1.66801162000000 121.53168565999999 11284.46173726022243
1.23496143000000 1.54418513000000 100.71220026000000 11288.00428341329280
0.96464303000000 1.46822874000000 139.05401092000000 11291.93943066895008
1.10876062000000 1.68888476000000  67.62726827000000 11295.95415969192982
1.29182222000000 1.63092838000000 104.03471822000000 11298.07771998644057
0.96446195000000 1.68888476000000 151.85929648000001 11310.34996534883976
1.20440190000000 1.68888476000000  76.05168188000000 11314.36775624752045
0.87033460000000 1.69986649000000  68.65344946000000 11316.47886320948601
0.96446195000000 1.67751262000000  65.07571185000000 11320.50514267385006
0.99264340000000 1.81291184000000  60.04557409000000 11341.69759929179963
1.28968322000000 1.62338241000000 107.57399429000000 11343.50070086121559
0.95383587000000 1.51161066000000 146.92661670999999 11348.55080407858077
0.83424822000000 2.04425584000000 103.00000000000000 11358.09405058622360
1.26392357000000 1.86272336000000 100.30754994000000 11360.73329149186611
0.84728973000000 1.68888476000000  71.81765965000000 11366.22495938837528
0.84978038000000 1.68888476000000  71.46514272000000 11367.10279712080956
0.96446195000000 1.80986763000000  60.24135026000000 11378.77483142912388
1.29322280000000 1.68888476000000 111.20261015000000 11379.23120301962081
0.77695441000000 1.66523408000000 103.00000000000000 11385.15922354161557
0.96446195000000 1.54268451000000  75.73616375000000 11396.61400076746759
1.23556215000000 1.67874600000000 126.40712482000001 11421.70389984547910
1.26295374000000 1.68888476000000 120.77317007000001 11422.43871819972992
1.29763920000000 1.68888476000000 109.43143092000000 11425.08233314752579
1.30085042000000 1.68888476000000 107.34764212000000 11429.84358157217684
0.96446195000000 1.67403057000000  65.09147020000000 11434.58841818571273
1.11443449000000 1.68888476000000 142.55700511000001 11437.53824463486853
1.03669236000000 1.69022642000000 149.27196942000000 11437.80476222932339
1.30389179000000 1.69746648000000 103.00000000000000 11441.19722977280617
0.96446195000000 1.59873740000000  70.11119707000000 11442.63339567184448
0.77970497000000 1.61478844000000 103.73208484000000 11444.78298251330853
0.78762250000000 1.69583250000000 119.57550701000000 11444.89889200031757
1.15251656000000 1.47467171000000 105.31006173999999 11448.30691076815128
1.13524594000000 1.69868006000000 140.17296761000000 11451.54433377087116
0.94475444000000 1.45840879000000  90.50826275000000 11463.92067976295948
1.00375489000000 1.66793038000000  65.23109128000000 11465.17985154688358
0.96446195000000 1.42587940000000 103.00000000000000 11465.69768704473972
1.07156675000000 1.45656259000000  96.58371382999999 11468.64953167736348
0.86089739000000 1.69539218000000  69.56619811000000 11482.67261293530464
1.28132104000000 1.59572908000000 102.52364996999999 11512.26310737431049
1.15149667000000 1.48570557000000  98.06901451000000 11522.76216430962086
1.30063979000000 1.73926870000000  96.68982507000000 11535.29875603318214
0.92221831000000 1.65914049000000 152.59125875999999 11542.44675816595554
1.30376103000000 1.68888476000000 107.06101086000000 11542.70720990002155
0.78163861000000 1.60396975000000 112.42296256000000 11544.64950697124004
0.96446195000000 1.68888476000000 152.56281407000000 11551.84111960232440
0.85327277000000 1.44879926000000 110.59625561999999 11555.03505550324735
1.30653266000000 1.68888476000000 103.00000000000000 11568.27087576687154
0.96446195000000 1.61596209000000  68.53193840000000 11583.88390132784843
1.14621531000000 1.68888476000000 139.52698110000000 11588.86457718908787
0.98845312000000 1.42620875000000 124.21629315000000 11602.81172333657560
0.78601008000000 1.71803035000000  87.88719558000000 11619.74064871668816
1.29890613000000 1.68888476000000  94.43393424000000 11626.69728299975395
1.29996263000000 1.76273787000000  97.31201562000000 11637.13830235600471
1.22196343000000 1.68888476000000  77.35231272000000 11637.19690948724747
1.30801081000000 1.68888476000000 104.93504469000000 11648.31583555042744
1.07980837000000 1.44448710000000 103.00000000000000 11663.96738396584988
1.08062804000000 1.69894510000000 146.25674434999999 11685.84313970804214
0.84909840000000 1.72752176000000  69.44410714999999 11686.69263112545013
0.87068148000000 1.68888476000000  68.47436053000000 11692.70295588672161
0.96446195000000 1.68888476000000  63.91959799000000 11696.16117343306360
1.28613439000000 1.68888476000000 116.43268673999999 11698.82995241880417
0.96446195000000 1.68888476000000 153.00000000000000 11706.57818822562876
0.96573790000000 1.50812517000000  79.84117320000000 11708.14686816930771
0.77904079000000 1.72177170000000  93.44584782000000 11710.14144015312195
0.78055639000000 1.74583998000000 111.09944965000000 11719.26562596857548
1.25368080000000 1.55931758000000  98.65768752000000 11725.07398657500744
1.26459648000000 1.71190445000000  83.10350176999999 11737.24160099029541
0.92495854000000 1.68320261000000  65.16684443000000 11741.23205779492855
0.79268689000000 1.67810930000000 124.93330838999999 11763.36783021688461
0.78416288000000 1.57079387000000 110.64929672000000 11767.61904773115930
1.13363742000000 2.11497571000000 104.50017145000000 11780.45633105933666
0.96446195000000 1.62022623000000  67.91686399000000 11793.45681634545144
1.26866001000000 1.86988882000000 102.39284068000001 11796.82929162681285
0.96446195000000 1.68888476000000 153.26633165999999 11798.67811846733275
1.12139841000000 1.67898236000000  67.86707946000000 11804.25104761123657
1.17563996000000 1.69729926000000 136.41919741999999 11807.78805050254050
0.79358623000000 1.88904087000000 100.43067575000001 11815.80859990417957
0.96446195000000 1.62409494000000  67.59817285000000 11817.72597879171371
1.29888452000000 1.75278064000000 108.94365983000000 11822.52116186916828
1.31245342000000 1.69322764000000 101.38484527999999 11842.28027072548866
0.85640744000000 2.11845417000000 106.96146576000000 11858.57551021873951
1.30271325000000 1.70449290000000  93.28363048999999 11861.83996397256851
1.30179044000000 1.68888476000000  93.41824875000000 11865.79948261380196
1.27549064000000 1.66617007000000 120.38473206000000 11873.58136495947838
0.97584287000000 1.67481741000000  64.24550753000000 11874.03241366147995
1.22202293000000 1.51434525000000 104.33262946000001 11876.79510705173016
1.29900016000000 1.61530212000000 103.00000000000000 11880.59937641024590
0.96446195000000 1.70293918000000  62.96851716000000 11885.16133001446724
1.31360365000000 1.68748834000000 103.00000000000000 11888.05269710719585
1.30822428000000 1.72392352000000 107.59066310999999 11892.01576562225819
1.29751602000000 1.61109486000000 103.00000000000000 11895.82050086558047
1.30866594000000 1.66148644000000 108.40565829000001 11901.50509028136730
0.97807789000000 1.43681750000000  95.90523899000000 11902.52819637954235
1.31407035000000 1.68888476000000 103.00000000000000 11908.34713743627253
0.80062055000000 1.68888476000000  80.87269027000001 11911.54849141836166
1.28429277000000 1.65777694000000 118.35656363000000 11925.38012753427029
1.01773952000000 1.68722147000000  63.57197011000000 11938.90679755806741
1.25990429000000 1.68888476000000  82.30044684000001 11939.83235228061676
0.77734731000000 1.77021533000000  98.89923450000001 11947.17415913939658
1.29810075000000 1.66470081000000  92.95684617000001 11950.81269940733910
1.30867241000000 1.72100009000000  95.07662888000000 11952.21833699941635
0.90571259000000 1.62967251000000  68.85223625000000 11953.00366051495257
0.82991225000000 1.47246849000000 103.00000000000000 11956.00229297578335
0.96446195000000 1.46318107000000  87.79353989000001 11958.12424285710040
1.04940589000000 1.67444649000000  64.76903460000000 11967.59312954545021
1.31526220000000 1.67806437000000 103.00000000000000 11978.46572057902813
1.29682580000000 1.79716528000000 105.09088883000000 11988.55409896373567
0.94233713000000 1.48505186000000 144.90427381000001 11992.89006254076958
0.92807638000000 1.70276062000000  63.74098119000000 11996.04429548978806
0.81395861000000 1.49251145000000 103.00000000000000 12002.60739877820015
1.31153830000000 1.75229929000000 103.00000000000000 12047.33953955769539
1.31464132000000 1.68888476000000 107.31079312000000 12057.56992945075035
1.31741462000000 1.69365695000000 102.34344067000001 12058.02354808151540
1.08842503000000 1.44541997000000 101.57862132000000 12059.97213317454043
1.31369524000000 1.68888476000000 108.26208065000000 12070.16687157749948
0.77345432000000 1.68888476000000  98.17058879000000 12085.22988076508045
1.10745522000000 1.67329162000000 145.38325104000000 12099.73944625258446
1.12722288000000 1.69454008000000 142.97420858999999 12107.31627279520035
1.01288721000000 1.68888476000000  63.17342845000000 12108.92630644142628
0.77264823000000 1.71386024000000 103.00000000000000 12122.09865444898605
0.96446195000000 1.56516920000000  72.08588235000001 12123.92744453251362
0.84038334000000 1.68555982000000  71.52452196000000 12142.62072272598743
1.30769179000000 1.64778973000000 111.45832707000000 12150.12890480458736
1.08747273000000 1.44691736000000  99.93346884000000 12160.65098077058792
0.97778958000000 1.94210871000000  57.08657007000000 12214.86191001534462
1.31043368000000 1.62647472000000 103.19863766000000 12219.09231333434582
0.91963648000000 1.76561305000000  61.37591490000000 12221.53884837031364
0.77135678000000 1.68888476000000 103.00000000000000 12237.10136352479640
1.31788163000000 1.68269012000000 108.08218599999999 12247.52596850693226
1.32160804000000 1.68888476000000 103.00000000000000 12254.26429554820061
1.30098092000000 1.65361405000000  92.58659915000000 12271.88185888528824
1.01478785000000 1.74630803000000  60.47286701000000 12278.10101549327374
0.99404410000000 1.66106222000000  64.32989696000000 12283.97798761725426
0.77099895000000 1.68718674000000 103.00000000000000 12292.60867090523243
0.84468289000000 1.68888476000000  70.45496645999999 12304.88261333107948
0.96446195000000 1.68888476000000  63.00000000000000 12315.11704316735268
0.77498423000000 1.76996633000000 103.00000000000000 12326.40681429207143
0.84012321000000 1.69493831000000  70.79866413000001 12331.58269408345222
0.96446195000000 1.64190051000000  65.61575915000000 12334.01254785060883
1.32209806000000 1.66793391000000 103.00000000000000 12340.67500717937946
0.78269045000000 1.74335204000000  86.70878814000000 12344.79452244937420
1.29173850000000 1.84181016000000 103.00000000000000 12363.89228439331237
0.92848298000000 1.65040867000000  65.90879140000000 12367.93410350382328
1.13779164000000 1.71157978000000 142.18809282999999 12377.30031841993150
1.29474455000000 1.68906543000000  87.68594537000000 12380.22343975305557
1.28690700000000 1.85912549000000 102.06736653000000 12409.67990270256996
0.96446195000000 1.40986273000000 112.72121832000001 12411.92543666064739
1.28817198000000 1.68253108000000 120.32322755000000 12439.41267997026443
0.82537624000000 1.64898009000000  75.42339710000000 12442.10352438688460
1.31621898000000 1.68888476000000  94.13376402000000 12449.57219211757183
1.28238816000000 1.87575752000000 100.55043496000000 12460.96603597700596
1.32622663000000 1.69460302000000 103.00000000000000 12461.33602249622345
0.81335053000000 1.68888476000000  75.85590983000000 12473.50108042359352
0.77372017000000 1.70917524000000  93.73374317000000 12476.71610376238823
0.92803476000000 1.68529528000000  63.83797115000000 12488.74481503665447
0.77491518000000 1.66679742000000 115.53833591999999 12493.20376348495665
1.13885929000000 1.45793009000000 103.00000000000000 12502.83523827791214
1.05228442000000 1.71601469000000  61.87533347000000 12512.31234297156334
1.30505453000000 1.81479549000000 102.80110928000001 12520.25811438262463
1.30764126000000 1.60481139000000 101.81456240000000 12527.54020068049431
0.77192523000000 1.71999980000000 108.79908656000001 12539.98697754740715
1.02547705000000 1.72363833000000  60.98988167000000 12559.83090905845165
1.26936723000000 1.90509744000000 103.19778503000001 12571.44365324079990
0.93449355000000 1.46380161000000  86.77882305000000 12583.99407692253590
0.94174007000000 1.68888476000000  63.08564651000000 12584.75780999660310
1.32914573000000 1.68888476000000 103.00000000000000 12593.14196212589559
0.92039554000000 1.41930894000000 103.00000000000000 12596.26869982481003
1.30789198000000 1.81292626000000 103.00000000000000 12629.66337585449219
1.26991130000000 1.70022746000000 124.77531488000000 12637.49223902821541
1.13560357000000 1.68382401000000  66.67459681000000 12640.43989899754342
1.01313701000000 1.68888476000000  62.35207875000000 12643.13890105485916
0.96446195000000 1.68888476000000  62.51256281000000 12650.10632181167603
0.78157510000000 1.67416807000000 122.21058444000001 12676.97252869606018
0.98716689000000 1.53480703000000  74.47548060000000 12679.06282810866833
0.82295849000000 1.66531332000000  74.41999677000000 12715.34777171909809
1.29678077000000 1.68888476000000  86.30409711000000 12730.73488336801529
1.32748781000000 1.74200503000000  97.88032280000000 12737.30595976114455
1.32195139000000 1.68888476000000 111.95553955000000 12745.78182181715965
0.77040458000000 1.68888476000000 110.83738708999999 12748.57711304724216
1.08611798000000 1.68888476000000  63.75241170000000 12749.28944386541843
0.97907984000000 1.57037373000000  70.49527467000000 12755.92570246756077
1.32595681000000 1.64317148000000 107.75497804000000 12767.86542081832886
1.14318105000000 1.68888476000000  66.60256020999999 12769.17167085409164
0.77871312000000 1.72839790000000 117.94865468000000 12777.00269709527674
1.32720672000000 1.75391715000000 103.00000000000000 12787.00605192780313
1.32298942000000 1.77885188000000 100.28057387000000 12797.42503935098648
0.96446195000000 1.49658016000000  79.61940251000000 12806.87828344106856
1.12013433000000 1.68888476000000  65.11573706000000 12831.82209521532059
0.80052092000000 1.72758758000000  77.23475344000001 12832.79412792623043
0.98428212000000 1.55306814000000  72.10199050000000 12844.44149549305439
0.80697444000000 1.68888476000000  76.56761849999999 12870.07908104359922
0.96353368000000 2.04540867000000  56.35858386000000 12880.15210761130038
1.14712175000000 1.70207765000000  65.92043689000000 12882.56025521457195
0.97437036000000 1.94882768000000  55.73325708000000 12886.03682367503643
0.77769820000000 1.56516962000000 104.88278406000001 12901.62283344566822
1.23561141000000 1.98379898000000 104.27014430000000 12903.72230547666368
1.05485060000000 1.42551501000000 103.00000000000000 12905.95638541877270
0.96446195000000 1.70739722000000  61.25730304000000 12914.66507019102573
1.32810683000000 1.72114595000000 109.63816758000000 12915.69248810410318
0.96446195000000 1.41331658000000 103.00000000000000 12937.41903561353683
1.33668342000000 1.68888476000000 103.00000000000000 12940.88947600126448
0.76827354000000 1.63770446000000 103.00000000000000 12948.70001524686813
1.13725617000000 1.68888476000000  65.77221504000001 12983.84452962875366
1.29660000000000 1.69568448000000 121.01005471000001 12988.40941534936428
1.33150260000000 1.64039673000000 103.00000000000000 12993.40906661748886
0.96446195000000 1.68888476000000 156.78391959999999 12994.52684886753559
0.84367807000000 1.68888476000000  69.37104248000000 12997.00572101771832
0.96446195000000 1.44144316000000  90.88648966000000 13006.77548171579838
0.98245887000000 1.68888476000000  61.78626425000000 13015.20776455104351
0.98578843000000 1.52084953000000  75.68643421000000 13021.92137700319290
0.82280969000000 1.65619762000000  74.33948487000001 13029.92847160995007
1.32235763000000 1.68888476000000 114.60996394999999 13075.30766747892085
1.33906226000000 1.70889258000000 104.07107882000000 13077.33309972286224
0.87233156000000 1.67381692000000  66.81378070000000 13107.40565603971663
0.91520379000000 1.41559623000000 103.00000000000000 13137.08436760306358
0.78082601000000 1.68888476000000  85.21091603000001 13199.26434312760830
1.26598319000000 1.69667369000000 127.92533276000000 13214.48811438679513
0.96446195000000 1.68888476000000 157.48743719000001 13225.99335315823555
1.34258474000000 1.69786060000000 105.24302365000000 13242.75886194407940
0.76732554000000 1.71240625000000 109.20522473000000 13259.66102710366249
1.26257017000000 1.68160836000000  78.18811857999999 13260.66667199134827
0.76543747000000 1.68888476000000 100.58863205000000 13266.47423605620861
1.34422111000000 1.68888476000000 103.00000000000000 13277.22173345088959
1.14748151000000 1.69824192000000  65.28824075000000 13277.57850699126720
1.30935791000000 1.68888476000000  86.37384495000001 13290.57265391945839
0.80142083000000 1.97555309000000 105.94606834000000 13304.78464932739553
0.77106682000000 1.74802815000000 111.96081891000000 13311.32167722284794
0.96446195000000 1.44375189000000  89.43526196000001 13325.49213242530823
0.94172779000000 1.57310351000000  69.89561401000000 13331.10765969753265
0.92896562000000 1.57318896000000  70.24715230000000 13342.89133115112782
0.95403153000000 1.92949462000000  55.24656952000000 13381.78231273591518
0.76446195000000 1.68888476000000 103.00000000000000 13392.42743027210236
1.34371700000000 1.65501426000000 103.00000000000000 13398.77784106135368
0.96446195000000 1.73985011000000  59.20777573000000 13408.54173342883587
1.24319277000000 1.50540216000000 103.00000000000000 13412.85172080993652
1.32538841000000 1.59659062000000 103.96022280000000 13421.86610239744186
0.79052813000000 1.94146937000000  99.70145863000000 13435.37927646934986
1.34448452000000 1.67139172000000  99.29558552000000 13436.57534006237984
1.29972301000000 1.68888476000000  83.58325966000000 13439.21707810461521
1.32866543000000 1.60146413000000 106.63032576000001 13443.00921277702037
0.96446195000000 1.68888476000000 158.19095476999999 13455.86985696852207
1.12762044000000 1.68705892000000  64.32688793000000 13479.00880664587021
0.76381910000000 1.68888476000000 103.00000000000000 13492.22228039801121
1.28264774000000 1.53756959000000 103.00000000000000 13499.85522297024727
0.80498966000000 1.69860042000000  75.22484872000000 13530.08685764670372
1.19086353000000 1.47054190000000 103.00000000000000 13550.99943248927593
1.35090587000000 1.69955295000000 103.80581094000000 13580.62985473871231
1.29007636000000 1.69058861000000  81.04366512999999 13586.86278095841408
0.79648662000000 1.70872025000000  77.09005074000000 13611.36845034360886
0.76551601000000 1.74964649000000 103.00000000000000 13614.30368056893167
1.34200501000000 1.77029003000000 103.00000000000000 13614.82204987108889
0.79781698000000 1.68888476000000  77.40910626000000 13623.62941291928473
1.35031298000000 1.66463315000000 103.00000000000000 13629.96149086952209
1.34094178000000 1.70723393000000  92.91501418999999 13636.58291748166084
1.32267231000000 1.58730280000000 101.56346206000001 13639.20674319565114
0.96446195000000 1.68888476000000  61.10552764000000 13640.73857799172401
0.99255251000000 1.44363443000000  88.95064302999999 13650.87039369344711
0.96446195000000 1.72486428000000  59.43940575000000 13669.94655089080334
1.34628252000000 1.74381461000000  96.15311825000001 13681.75426201522350
1.25060398000000 1.69949144000000 132.04413479999999 13682.77394188940343
0.96446195000000 1.68888476000000 158.89447236000001 13687.02918750047684
0.96446195000000 1.40703518000000 103.00000000000000 13701.87439851462841
0.92559535000000 1.76111680000000  59.04452160000000 13702.84756767749786
0.96096368000000 1.55414159000000  70.82666533000000 13707.05326323211193
1.32431747000000 1.66482779000000  89.28431293000000 13709.57609361409959
1.34852352000000 1.68888476000000 109.47999618999999 13712.24637931585130
0.92498436000000 1.73660755000000  59.94600349000000 13713.96257118880749
1.05232276000000 1.41075630000000 111.04758158000000 13715.57088707387447
0.84967277000000 1.43620774000000 103.00000000000000 13718.72261601686478
1.34057799000000 1.68888476000000 113.35669122000000 13721.97380824387255
1.21475695000000 1.48351587000000 101.97927278000000 13733.32603326440039
1.09877837000000 1.68888476000000  62.47064711000000 13741.40179768204871
1.34352344000000 1.62260290000000 107.19249454000000 13759.17351266741753
0.80792139000000 1.68888476000000  74.41083356999999 13760.97015407681647
1.06943874000000 1.42326207000000 101.67949568000000 13764.09545344114485
0.81925045000000 1.71901395000000  70.74241966000000 13789.04933810234070
1.28532593000000 1.69821609000000 126.85272460000000 13797.12460720539275
1.32666918000000 1.68888476000000  87.90553018000000 13804.03199954330739
0.79281664000000 1.67808427000000  78.95455653000000 13815.13597463071164
1.30378478000000 1.68888476000000 123.66263475000000 13824.09627802670002
0.89698607000000 1.68888476000000  63.23285936000000 13829.74335180222988
1.34750013000000 1.63755573000000 108.87173769000000 13829.76214917003927
0.81515367000000 2.06834225000000 103.00000000000000 13831.12693563103676
0.96446195000000 1.67031315000000  61.83126557000000 13838.24852202832881
0.78713819000000 1.93172258000000 103.00000000000000 13839.56579774617967
0.83875773000000 2.15092838000000 105.78064396000001 13852.45282749831676
1.34046852000000 1.67844874000000 114.54806268999999 13854.01155884563923
0.77750294000000 1.56348989000000  96.78575827000000 13856.89634586870852
0.78060785000000 1.89382411000000 103.00000000000000 13867.72491812705994
0.90169332000000 1.64140391000000  65.53156715000000 13875.38538730144319
1.04923028000000 1.68888476000000  60.92840141000000 13876.00217872858047
1.30850105000000 1.68888476000000  83.37320011000000 13880.56799584627151
0.96446195000000 1.68888476000000 159.59798995000000 13906.43251861632052
1.33969078000000 1.69001283000000 115.13734137000000 13917.49099406599998
0.76778044000000 1.75945315000000  91.63534982000000 13918.98337374627590
0.78406103000000 1.67110541000000  82.19296362000000 13920.81845596432868
1.35929648000000 1.68888476000000 103.00000000000000 13954.27740395069122
0.98601212000000 1.68888476000000  60.45685441000000 13954.40684613585654
1.33221787000000 1.67151833000000  89.30742780999999 13973.60425589978877
1.35309919000000 1.68888476000000 110.41549142000000 13978.89156503975391
0.83971957000000 1.44071601000000 103.00000000000000 13982.46386860311031
1.11992688000000 1.44178696000000  98.96239128000001 13996.03778563439846
0.76231489000000 1.73506614000000 100.89973110000000 14012.08621014654636
1.02247540000000 1.68888476000000  60.39605778000000 14013.77341707050800
1.33240978000000 1.68888476000000  88.16272656000000 14014.53814661502838
1.34591273000000 1.78945944000000 103.00000000000000 14031.47179026901540
1.25598262000000 2.00100985000000 102.61896977000001 14087.77127900719643
1.27936022000000 1.68062214000000 129.32949020000001 14099.38693799078465
1.36187619000000 1.67426869000000 103.00000000000000 14099.48729939758778
0.95350098000000 1.51770138000000  74.55457733000000 14101.98112916946411
1.33219972000000 1.84096956000000 101.09487977000001 14126.56822994351387
0.96446195000000 1.68888476000000 160.30150753999999 14127.67327181994733
1.35632644000000 1.73671527000000  95.75180493000001 14128.31625415384769
1.36352117000000 1.68888476000000 102.81440520000000 14143.21358722448349
0.77322207000000 1.66381629000000 123.40988836000000 14146.78774498403254
0.78533891000000 1.93461141000000 103.00000000000000 14164.84333828091621
0.76603184000000 1.79453444000000 103.00000000000000 14167.02305972575959
0.96446195000000 1.68888476000000  60.40201005000000 14170.91426081955433
1.36446195000000 1.68888476000000 103.00000000000000 14185.10819385945797
1.34783685000000 1.73291625000000 112.46225806000000 14188.93652474880219
0.94199601000000 1.59017416000000  67.18961519000000 14190.62279196083546
0.93607428000000 1.45858134000000  84.43448994000001 14198.11647991836071
1.33492585000000 1.68888476000000 118.63446005999999 14233.95980863273144
1.36575140000000 1.70551991000000 103.00000000000000 14253.42076924443245
1.28105741000000 1.69134808000000  76.99034593000000 14256.20376646518889
1.32803900000000 1.68888476000000 120.54685583000000 14270.32611414790154
0.76950934000000 1.83234394000000 103.00000000000000 14278.16329006850719
1.34486789000000 1.69437019000000 116.19856195000000 14300.71002325415611
1.23418303000000 1.67827306000000  71.42735681000001 14309.55035576224327
1.21063393000000 1.47166170000000 103.00000000000000 14310.01600173115548
0.88293234000000 1.64543647000000  65.82610004999999 14316.59111306071281
0.96032517000000 1.70460245000000  59.49543426000000 14335.73689024150372
1.15900064000000 1.44480342000000 104.09864460999999 14342.89578667283240
0.79809770000000 2.01120242000000 103.00000000000000 14373.57204304635525
1.12261376000000 1.68888476000000  62.28822706000000 14382.28234647214413
1.34589068000000 1.68888476000000  89.56888590000000 14395.03244328498840
1.31811315000000 1.68888476000000  82.83447735999999 14438.48718547821045
1.35427022000000 1.70007693000000  91.43240797000000 14442.85907198488712
1.34310772000000 1.67370902000000  89.12326919000000 14483.39247137307939
0.94176494000000 1.56482012000000  69.01108836000000 14491.99727837741375
0.95596486000000 1.54089951000000  71.13909090999999 14492.03370741009530
0.96446195000000 1.40075377000000 103.00000000000000 14498.62931741774082
1.26726137000000 1.50474271000000 103.00000000000000 14509.74529565870762
1.31832276000000 1.55126685000000 103.00000000000000 14514.35837568342868
1.33296931000000 1.68888476000000 120.81364847000000 14516.80855424702168
0.96446195000000 1.48234149000000  78.91460305000000 14529.88155402243137
1.28588488000000 1.51626745000000 105.18113396000000 14537.21033549308777
0.77848603000000 1.68888476000000  82.02075596000000 14538.15960787236872
0.96446195000000 1.68888476000000 161.70854270999999 14555.12441892921925
0.95136196000000 1.68888476000000  60.14291241000000 14556.27077293395996
0.76859598000000 1.61253969000000  92.44522823000000 14583.31834083795547
1.37437186000000 1.68888476000000 103.00000000000000 14625.77407442033291
0.89105332000000 1.63371546000000  65.57744723000000 14631.76643486320972
1.20045485000000 1.68337291000000 141.98304075999999 14642.17151485383511
0.85199381000000 1.42609500000000 103.00000000000000 14655.07757419347763
0.94312786000000 1.68888476000000  60.21479400000000 14655.40479817986488
0.75874094000000 1.73562793000000 103.00000000000000 14656.52359977364358
1.35842899000000 1.79603111000000 103.00000000000000 14679.35163067281246
1.33766955000000 1.68888476000000  85.85878176000000 14685.66030600667000
1.22794891000000 1.68890912000000 138.63271452999999 14704.75136958062649
0.96446195000000 1.68888476000000  59.69849246000000 14708.90075643360615
0.83557492000000 1.43670057000000 103.00000000000000 14709.71407838165760
0.76676416000000 1.67121768000000 121.02200144000000 14737.42337206006050
1.04592451000000 1.66867559000000  60.67092416000000 14753.56807184219360
0.96446195000000 1.68888476000000 162.41206030000001 14762.95823231339637
1.37756100000000 1.70616605000000 103.48745132000001 14784.88311448693275
0.91541315000000 1.40227383000000 103.00000000000000 14787.80050596594810
0.96566596000000 1.41661072000000  94.03275087999999 14804.85872212052345
0.75628141000000 1.68888476000000 103.00000000000000 14836.06186372041520
1.37096420000000 1.63558685000000 101.60108722000000 14837.49589522182760
0.75796149000000 1.66905869000000 111.02920181000000 14840.69386886060238
1.37067588000000 1.70753275000000  94.26923325999999 14844.29553659260455
0.77558451000000 1.52788730000000 103.00000000000000 14848.26881268620309
0.78045051000000 1.92967857000000 104.42294047999999 14866.67185124754724
1.10485749000000 1.68188016000000  61.12010708000000 14871.61857870221138
1.21527469000000 1.67178989000000  68.39506152000000 14872.07926167547521
1.26021116000000 2.02477452000000 103.35780647999999 14875.33525717258453
1.36083098000000 1.66800529000000 115.66707431000000 14897.05845589935780
0.87633609000000 1.43427920000000  93.27739954000000 14900.67955124378204
0.75598297000000 1.69491812000000 103.00000000000000 14904.37231306731519
0.75596095000000 1.68888476000000 104.86471890999999 14908.59019827842712
1.01992500000000 1.63058431000000  62.56751089000000 14911.26334002614021
1.37121143000000 1.62685684000000 103.00000000000000 14925.76869018376055
1.36398088000000 1.79626156000000 103.00000000000000 14931.92129696905613
1.36833496000000 1.68888476000000  93.06005660000000 14938.57753010094166
1.33814712000000 1.68888476000000  84.69093646000000 14939.08014707267284
1.38190955000000 1.68888476000000 103.00000000000000 14959.12571884691533
0.96446195000000 1.68888476000000 163.11557789000000 14966.09468241035938
1.37496155000000 1.68411448000000 110.71991303999999 14968.94479793310165
0.91960947000000 1.40021095000000 103.00000000000000 14979.12287673353967
0.76349767000000 1.73054897000000 116.39296352000000 14993.23540316521940
0.76634272000000 1.55323430000000 107.67919565000000 14998.99699619412422
0.80659737000000 1.68888476000000  72.24526320000000 15011.63592679798603
1.31045316000000 1.92681482000000 104.75632010000000 15031.38649366796017
1.30560465000000 1.94672802000000 102.18890757000000 15081.58243361115638
1.30393001000000 1.68484463000000 129.02796832000001 15101.53727605938730
1.34477260000000 1.68888476000000  85.35653762000000 15109.89282350241956
1.09096235000000 1.68888476000000  59.89608213000000 15136.41355282068434
1.38293652000000 1.68888476000000 108.43028024000000 15164.22885200381279
0.96446195000000 1.68888476000000 163.81909547999999 15167.86234307289124
0.75445496000000 1.67440659000000 103.00000000000000 15173.10557766258717
1.28737342000000 1.51351749000000 100.40751499000000 15174.29734988510609
1.37548007000000 1.68888476000000 112.88130103000000 15208.91397804021835
1.36999468000000 1.68888476000000 114.95469292999999 15212.50418408215046
1.31438715000000 1.53085109000000 103.00000000000000 15216.54823461174965
0.95488124000000 1.74228931000000  56.83776476000000 15219.00223787128743
1.04986770000000 1.40471485000000 103.00000000000000 15223.10528863966465
1.38800109000000 1.70992341000000 103.00000000000000 15243.86506581306458
0.96446195000000 1.68888476000000  58.99497487000000 15251.79487921297550
0.76007599000000 1.58645038000000 103.00000000000000 15252.96363590657529
0.96161204000000 1.43835179000000  86.43891478000000 15255.38472890854064
1.38944724000000 1.68888476000000 103.00000000000000 15290.10260665416718
0.75579918000000 1.68888476000000 110.99830178000001 15290.78155910968781
1.24615516000000 1.47887231000000 103.00000000000000 15291.08188803493977
1.11498040000000 1.70755446000000  59.38088520000000 15316.39441131055355
0.78679170000000 1.98862165000000 103.00000000000000 15325.18684673309144
0.96446195000000 1.39447236000000 103.00000000000000 15330.69888323545638
0.96446195000000 1.68888476000000 164.52261307000001 15357.05078783631143
0.83016281000000 1.68888476000000  67.40098370000000 15371.68262679874715
0.96446195000000 1.60766069000000  63.80148143000000 15376.99259243905544
0.96446195000000 1.53191823000000  70.71690409999999 15408.03145742416382
1.19306910000000 1.70148794000000  63.41297618000000 15433.76609908044338
1.35337202000000 1.68888476000000  85.61275374000000 15438.76275846361932
1.38356186000000 1.72610810000000 109.77612943000000 15439.51594540476799
0.76088120000000 1.57421729000000 103.00000000000000 15454.31684008240882
1.36959764000000 1.68888476000000 117.16370761000000 15514.94122800230980
0.96446195000000 1.62339392000000  62.50196068000000 15518.58635056018829
1.09138392000000 1.68740519000000  59.37529604000000 15525.87248374521550
1.34189195000000 1.67224991000000 124.05984558000000 15540.62713104486465
0.96446195000000 1.68888476000000 165.22613064999999 15540.92424258589563
0.75263968000000 1.68888476000000 105.28927932000001 15544.24695409834385
0.75778198000000 1.64049228000000 116.79688772999999 15567.70999589562416
1.35012159000000 1.67910929000000 122.47753702000000 15580.15473666787148
1.32379636000000 1.68546619000000 127.57469107000000 15605.72816385328770
1.39698492000000 1.68888476000000 103.00000000000000 15620.64047639071941
1.26678070000000 1.48629015000000 103.00000000000000 15664.42360454797563
0.86450002000000 1.68888476000000  62.99807939000000 15709.13189958035946
1.37307429000000 1.68888476000000  88.94113590000001 15718.59024842083636
1.34286253000000 1.54806251000000 103.00000000000000 15721.50246615708056
0.96446195000000 1.68888476000000 165.92964824000001 15725.50279870629129
0.99718283000000 1.68888476000000  58.05275774000000 15734.31622011959553
1.31840478000000 1.52328336000000 103.00000000000000 15749.14613717794418
1.35679518000000 1.71176894000000 121.30420936000000 15795.11296151578426
1.30694386000000 1.51257259000000 103.00000000000000 15806.78407824039641
0.96446195000000 1.68888476000000  58.29145729000000 15816.19208343327045
1.39492337000000 1.64726242000000  99.72227108000000 15850.62244385480881
1.39191991000000 1.69383383000000  94.04276751000000 15852.89736746251583
1.17681274000000 1.43914092000000 102.05736457000000 15900.50205384194851
0.96197900000000 1.66817604000000  59.31920874000000 15902.27003644406796
0.91437741000000 1.71726786000000  58.26398799000000 15922.30673480034056
1.38793888000000 1.68888476000000 114.40689195000000 15922.76021170615968
1.36605991000000 1.67989251000000  86.53771150000000 15923.48860181868076
0.96446195000000 1.53562755000000  69.58196697000000 15930.73629346490088
1.40370846000000 1.67293627000000 103.00000000000000 15945.40827924013138
1.40452261000000 1.68888476000000 103.00000000000000 15948.60712420940399
0.75041096000000 1.68888476000000 104.22680540000000 15950.45103594660759
0.78727020000000 1.68888476000000  75.27930204000000 15974.27362798154354
1.34768311000000 1.54650650000000 102.98129615000001 15990.92279903590861
0.90281423000000 1.70895065000000  59.08334929000000 15997.32023084163666
0.75731597000000 1.68888476000000 118.35405641000000 15999.96833720803261
0.75010381000000 1.68888476000000 104.92037381000000 16020.82889188826084
1.30678342000000 1.69282431000000  74.60965190000000 16042.49333053827286
0.96446195000000 1.68888476000000  58.00000000000000 16054.09188573062420
0.96446195000000 1.68888476000000 167.33668342000001 16068.92758768796739
1.27844880000000 1.70120896000000 135.98683292000001 16105.86917637288570
0.96446195000000 1.38888476000000 103.00000000000000 16109.46924749016762
1.39566928000000 1.78652004000000 100.55314405999999 16176.67076697945595
1.39809357000000 1.61900270000000 106.63766184000001 16179.81391984224319
1.36767871000000 1.56312963000000 104.09011416000000 16191.96375715732574
1.35619121000000 1.55174493000000 102.36863269000000 16200.65502104163170
0.96446195000000 1.38819095000000 103.00000000000000 16204.07639057934466
0.96446195000000 1.68888476000000 168.04020101000000 16230.46531790494737
1.40189484000000 1.62826264000000 103.00000000000000 16237.43752621114436
1.41160176000000 1.69184291000000 103.00000000000000 16254.19160152971563
1.41206030000000 1.68888476000000 103.00000000000000 16273.19427779316720
0.74874372000000 1.68888476000000 103.00000000000000 16274.58983893692312
1.40830703000000 1.73391682000000 105.55843985999999 16327.40859244764033
0.97039253000000 1.64411961000000  60.05768956000000 16337.72301630675793
1.41370752000000 1.68888476000000 101.91999210000000 16354.78469412028790
0.96446195000000 1.68888476000000 168.74371858999999 16384.80267857015133
0.96446195000000 1.68888476000000  57.58793970000000 16395.13777281343937
0.75747066000000 1.71448532000000  87.06487806000000 16422.33012616634369
0.96446195000000 1.64918894000000  59.73430300000000 16426.28476092219353
1.39410885000000 1.80750687000000 103.00000000000000 16432.64393939077854
1.40022706000000 1.61305399000000 102.08002080000000 16437.49893939495087
1.40324561000000 1.68888476000000  93.44558567000000 16438.29045467078686
0.76991484000000 1.67239557000000  81.20063430000000 16445.54600681364536
0.75621858000000 1.77800767000000 112.51697167000000 16445.64506794512272
1.40533011000000 1.62996044000000 109.65727792000000 16450.68470667302608
0.96446195000000 1.68888476000000 169.44723618000000 16531.62986554205418
1.31416305000000 1.70276884000000 132.29623235000000 16541.62621368467808
1.40351082000000 1.68888476000000  92.66382843000000 16548.88001775741577
1.36625325000000 1.56161123000000  99.08134861000001 16584.64437986910343
1.41959799000000 1.68888476000000 103.00000000000000 16598.50067724287510
1.32596537000000 1.51287789000000 103.00000000000000 16618.52132308483124
1.15207783000000 1.69382055000000  59.09380937000000 16663.61222276091576
0.96446195000000 1.68888476000000 170.15075376999999 16666.14313335716724
1.27642551000000 1.47804404000000 103.00000000000000 16670.64601339399815
1.05246879000000 1.65879872000000  58.65778199000000 16683.64339409768581
1.37175561000000 1.68694121000000 123.29373379000000 16698.32158267498016
1.41829315000000 1.65291321000000 102.04542213000001 16703.14687542617321
1.39572381000000 1.68888476000000  88.97217623000000 16725.00299064815044
0.74739849000000 1.72609871000000 103.00000000000000 16729.73275028169155
1.41613850000000 1.67227733000000 110.66339861000000 16744.78862477838993
0.75038368000000 1.67262655000000 115.29366263999999 16745.41950730979443
1.42054179000000 1.65448823000000 103.00000000000000 16764.99992692470551
1.40399047000000 1.79371317000000 105.10273366000000 16772.93957218527794
1.41981197000000 1.64503910000000 104.66043325000000 16792.95423549413681
1.36127624000000 1.67821862000000 126.14361674000000 16848.84351262450218
1.32875489000000 1.69214734000000  75.06836991000000 16877.79219736158848
1.01587490000000 1.64220610000000  59.20986510000000 16879.90378431975842
0.95608335000000 1.44043775000000  82.83922256000000 16888.76533344388008
1.42713568000000 1.68888476000000 103.00000000000000 16919.24035884439945
0.96446195000000 1.68888476000000 171.55778893999999 16920.25564241409302
0.86508860000000 1.40056999000000 103.00000000000000 16924.06764779984951
1.40030290000000 1.59287621000000 100.54172665999999 16961.84373718500137
1.38188282000000 1.55961941000000 103.00000000000000 16975.66119094192982
1.02206325000000 1.64770207000000  58.76423301000000 16978.85553866624832
0.96446195000000 1.68888476000000  56.88442211000000 16990.56719206273556
1.39196639000000 1.68888476000000 120.37954747000001 16990.70695690810680
1.40421680000000 1.58929243000000 104.44706085000000 17000.76301778852940
0.79023347000000 1.46343846000000 103.00000000000000 17005.49142602086067
1.40645664000000 1.79963558000000 106.10842459000000 17023.90825840830803
0.74870834000000 1.61459131000000  99.46492545000000 17028.30439129471779
0.96446195000000 1.68888476000000 172.26130653000001 17037.91206003725529
1.41851754000000 1.71444609000000 111.64629442000000 17050.35319672524929
1.39344873000000 1.68379037000000  86.81191968000000 17050.69536396861076
1.39377023000000 1.57495608000000 101.92224471999999 17064.41309528052807
0.75506333000000 1.71526661000000  86.16880887000001 17078.45778785645962
0.77910691000000 2.01406734000000 103.00000000000000 17112.06351436674595
1.40149156000000 1.68888476000000 118.73187847000000 17113.25057010352612
0.96446195000000 1.38190955000000 103.00000000000000 17121.44634878635406
0.96446195000000 1.68888476000000 172.96482412000000 17142.82443135976791
0.96446195000000 1.68888476000000 173.00000000000000 17147.83054725825787
0.79023655000000 1.69056215000000  72.00796716000001 17169.94623093307018
1.43242390000000 1.66177396000000 102.27064154999999 17231.32870727777481
1.43467337000000 1.68888476000000 103.00000000000000 17234.85746425390244
0.96446195000000 1.68888476000000 173.66834170999999 17238.55496142804623
1.23991653000000 1.45152596000000 103.00000000000000 17239.77532865107059
1.01718536000000 1.68888476000000  56.09570109000000 17284.79749836027622
0.96446195000000 1.68888476000000 174.37185930000001 17324.87409096956253
0.96446195000000 1.59952821000000  61.95324706000000 17367.52472747862339
1.42138535000000 1.67236174000000 115.05970682000000 17398.99087543785572
0.96446195000000 1.68888476000000 175.07537687999999 17401.56754247844219
1.39842065000000 1.85449116000000 103.17603916000000 17423.27034106850624
0.75086190000000 1.82414663000000 101.75172510000000 17428.57406562566757
1.33294974000000 1.69185746000000 132.82749677999999 17441.59045197069645
0.96446195000000 1.68888476000000 175.77889447000001 17465.77431239187717
1.31947640000000 1.49737297000000 101.00431474000000 17468.44319763779640
1.27869078000000 1.46891889000000 102.78908333000000 17476.15550416707993
0.77116258000000 1.68888476000000  77.32400036999999 17487.83901458978653
0.96446195000000 1.49169231000000  72.85968224000000 17491.09826199710369
0.96446195000000 1.68888476000000 176.48241206000000 17525.32979431748390
1.29999882000000 1.67636451000000  69.83704711999999 17542.56535935401917
1.27385982000000 1.68226777000000  66.28959197000000 17547.65574549138546
1.44221106000000 1.68888476000000 103.00000000000000 17556.98248180747032
0.96446195000000 1.68888476000000 177.18592964999999 17572.07919198274612
1.43631987000000 1.73734867000000 106.61528165000000 17602.70287260413170
0.96446195000000 1.68888476000000  56.18090452000000 17603.31649909913540
0.96446195000000 1.68888476000000 177.88944724000001 17608.56917157769203
0.96446195000000 1.68888476000000 178.59296481999999 17634.70400415360928
1.34926910000000 1.69862283000000  75.18128387000000 17640.88040782511234
0.96446195000000 1.68888476000000 179.29648241000001 17650.41261528432369
0.96446195000000 1.68888476000000 180.00000000000000 17655.65376515686512
1.37079162000000 1.70206299000000 127.46317424000000 17667.82102705538273
1.21297121000000 1.67528216000000  61.27047065000000 17675.07191272079945
1.43424420000000 1.65075931000000 112.18009177000000 17677.38819845020771
0.75786127000000 1.68888476000000  82.87953661000000 17694.54913583397865
1.32469377000000 1.69350207000000  71.42587660000000 17725.13616730272770
1.44655322000000 1.68195309000000 103.00000000000000 17743.96684511005878
1.43883438000000 1.66935299000000 111.37044605000000 17748.73792049288750
1.41977991000000 1.67015840000000 118.28790218000000 17772.74911035597324
1.33091416000000 1.70021853000000  71.76488801000001 17773.19310364127159
1.30506566000000 1.69092711000000  68.62830181000000 17805.12316459417343
0.74120603000000 1.68888476000000 103.00000000000000 17808.43744614720345
0.74130355000000 1.69865817000000 101.89842372000000 17824.04515902698040
1.42738377000000 1.69678460000000 116.09229184000000 17841.26367643475533
0.75013377000000 1.83667536000000 103.00000000000000 17862.37926225364208
1.44974874000000 1.68888476000000 103.00000000000000 17871.80469319224358
1.41020405000000 1.67102619000000  87.08021974000000 17880.26117454469204
1.41162484000000 1.68337942000000 121.12741419000000 17936.05734539031982
1.30080015000000 1.69553024000000 138.85315639999999 17967.76693579554558
1.44784138000000 1.68888476000000 109.57858797000000 17998.04011009633541
0.96446195000000 1.60882531000000  60.51910141000000 18018.17102539539701
1.01309775000000 1.62637589000000  58.85103771000000 18040.98177154362565
0.76309493000000 1.71160022000000 130.77800375000001 18052.66095422208309
1.43932486000000 1.67162800000000 114.55554393000000 18059.34346693754560
0.96446195000000 1.37562814000000 103.00000000000000 18063.61599564552307
0.80378282000000 1.43426095000000 103.00000000000000 18077.80613197386265
0.73999588000000 1.66344806000000 103.00000000000000 18084.88962647318840
0.75811882000000 1.68888476000000 128.72753872999999 18117.40122637152672
0.79427575000000 1.68888476000000  69.44187153999999 18118.83746851980686
1.19633766000000 1.42391849000000 103.00000000000000 18123.76562862098581
0.86382871000000 1.68888476000000  59.90174190000000 18152.80013935267925
0.75002145000000 1.70747346000000 121.67033394000001 18172.58110445737475
1.45728643000000 1.68888476000000 103.00000000000000 18184.17324241996175
1.43966732000000 1.60054722000000 106.87340507000000 18208.82548065483934
1.28210585000000 1.70220353000000  63.81499079000000 18221.61295284330845
1.43961231000000 1.79426042000000 103.00000000000000 18227.39947040379047
0.74266235000000 1.73034435000000 111.08218974000000 18234.28937482833499
0.96446195000000 1.68888476000000  55.47738693000000 18237.80738791823751
0.98555942000000 1.44949191000000  78.54750280000000 18263.63037872314453
1.43532186000000 1.68888476000000 117.33276531000000 18304.61671413480872
0.97291699000000 1.70252359000000  54.57431457000000 18307.95560282468796
0.76642123000000 1.49203948000000 103.53046655999999 18320.74138489365578
1.39630850000000 1.53522554000000 105.76871727000000 18358.60614265501135
0.98270969000000 1.68888476000000  55.07220166000000 18365.09348419308662
1.44757330000000 1.65715900000000 114.12296648000000 18381.16567236184710
1.45962492000000 1.68888476000000 107.89199102000001 18384.27292770147687
0.74023332000000 1.74524288000000 103.00000000000000 18394.38817252218723
0.74492799000000 1.67904618000000 118.84233223000000 18406.39344991743928
0.80919746000000 1.68888476000000  66.05285777000000 18419.39462867379189
0.75978926000000 1.68888476000000 131.03597016000001 18437.48116180300713
0.74324755000000 1.68888476000000 116.63261057000000 18448.29712356627351
1.46101261000000 1.68888476000000 108.34203319000000 18463.20811773836976
1.46446195000000 1.68888476000000 103.00000000000000 18479.19163711368674
1.46482412000000 1.68888476000000 103.00000000000000 18494.02070091664791
1.42995165000000 1.84086937000000 102.24527021999999 18528.05054561793440
1.44504725000000 1.59735260000000 103.00000000000000 18568.08445914089680
0.74735251000000 1.84618564000000 102.59829707000000 18594.59206238388651
0.76285922000000 1.68888476000000 133.51303976000000 18596.26960137486458
0.73767924000000 1.68888476000000 105.76968801000000 18600.37115582824117
0.96446195000000 1.63717217000000  57.94344421000000 18638.27772253752119
0.99319787000000 1.44004176000000  79.84845906000000 18654.13572669028872
1.46885765000000 1.66815306000000 103.00000000000000 18686.38809995352858
1.46218761000000 1.73965755000000 106.66705650000000 18695.97384561598301
0.74068272000000 1.59962306000000 103.00000000000000 18705.11223366856939
0.81472831000000 1.68888476000000  64.72058033000000 18714.85127143561476
1.45057782000000 1.71649367000000 114.97255824000000 18766.08513401448727
1.45078284000000 1.63160213000000  95.79509242000000 18777.51973359286785
1.47236181000000 1.68888476000000 103.00000000000000 18801.28455671668053
1.45626246000000 1.78657058000000 103.00000000000000 18840.49874466657639
1.43954214000000 1.58676246000000  99.52689574000000 18842.06113737821579
0.96446195000000 1.68888476000000  54.77386935000000 18884.46543017029762
0.91794674000000 1.69277341000000  55.78215038000000 18916.73086211085320
1.25223351000000 1.43643260000000 104.92088041000000 18926.03975230455762
0.74792095000000 1.86714895000000 103.00000000000000 18956.89010286331177
1.45903045000000 1.69262610000000 115.03846865000000 18976.37954723835355
1.47499857000000 1.66458544000000 102.02094753999999 18979.92121793329716
1.47726584000000 1.68490912000000 103.00000000000000 18999.43532998859882
1.47055839000000 1.66373178000000  98.18064898999999 19000.42941939830780
1.47641220000000 1.70858137000000 104.70347167000000 19017.46354535222054
0.96446195000000 1.36934673000000 103.00000000000000 19043.50704739987850
1.47989950000000 1.68888476000000 103.00000000000000 19105.90495324134827
1.44826935000000 1.68597677000000 119.47181012000000 19147.21282687783241
1.37798392000000 1.68236027000000 132.38958572999999 19158.60096932947999
1.44785370000000 1.68888476000000 119.94263943999999 19219.53523594140643
1.32706816000000 1.68866019000000 139.38333900000001 19221.68666088580721
1.48441239000000 1.70846417000000 103.00000000000000 19324.36921252310276
1.46743546000000 1.60258233000000 103.00000000000000 19359.34997425973052
0.74665586000000 1.68888476000000  84.43759384000001 19362.00739260017508
1.45842044000000 1.58457748000000 103.00000000000000 19394.17937855422497
0.73603064000000 1.75391780000000 100.29059319000000 19396.55045835673445
1.48743719000000 1.68888476000000 103.00000000000000 19407.82439616322517
0.74522380000000 1.86472214000000 103.00000000000000 19446.86616285145283
0.73366834000000 1.68888476000000 103.00000000000000 19449.74791283905142
1.47244320000000 1.78280543000000 103.00000000000000 19466.66636641323930
1.41912773000000 1.69929129000000 127.12947226000000 19546.54998360574245
1.48993351000000 1.71596573000000 103.00000000000000 19576.74158605932826
1.45390209000000 1.56888991000000 103.00000000000000 19638.59434629976749
0.77489912000000 1.70418800000000  70.94949305000000 19692.31088276207447
1.49497487000000 1.68888476000000 103.00000000000000 19706.98873996734255
0.74470400000000 1.86318051000000 105.83685948999999 19715.86616086959839
1.48791785000000 1.68888476000000 111.27791003999999 19729.30188646912939
0.77534065000000 1.71199535000000  70.35294245999999 19785.63197332620621
0.96446195000000 1.45176905000000  75.86315316000000 19792.12303878366947
0.73930038000000 1.82380741000000 103.00000000000000 19834.06907728314400
1.48195975000000 1.67890449000000 115.68631329999999 19913.68703962862492
1.46185906000000 1.69492173000000  86.61087261999999 19944.98620556294918
1.47781642000000 1.68888476000000 117.10881584000001 19967.81198568642139
1.47684542000000 1.70078787000000 116.98121451999999 19971.66905437409514
end