structural
morse    2
rOHe    0   0   0    0          0.949461950
rOCle   0   0   0    1          1.688884760
alphae  0   0   0    0          103.0000000
am1     0   0   0    0          1.000000000
am2     0   0   0    1          3.113461066705
end

linear
f    0   0   0    1     0.0000000
f    0   2   0    1     0.0000000
f    0   3   0    1     0.0000000
f    0   4   0    1     0.0000000
f    0   5   0    1     0.0000000
f    0   6   0    1     0.0000000
end

grid
0.96446195 1.68888476 103.00000000 -535.789142464675    1
0.96446195 1.68388476 103.00000000 -535.789148815853   61
0.96446195 1.69388476 103.00000000 -535.789114555833   62
0.96446195 1.67888476 103.00000000 -535.789132949359   63
0.96446195 1.69888476 103.00000000 -535.789065733101   64
0.96446195 1.67388476 103.00000000 -535.789094190362   65
0.96446195 1.70388476 103.00000000 -535.788996625529   66
0.96446195 1.66888476 103.00000000 -535.789031846801   67
0.96446195 1.70888476 103.00000000 -535.788907847544   68
0.96446195 1.66388476 103.00000000 -535.788945209784   69
0.96446195 1.71388476 103.00000000 -535.788799998820   70
0.96446195 1.65888476 103.00000000 -535.788833553266   71
0.96446195 1.71888476 103.00000000 -535.788673665551   72
0.96446195 1.65388476 103.00000000 -535.788696133358   73
0.96446195 1.72388476 103.00000000 -535.788529420434   74
0.96446195 1.64888476 103.00000000 -535.788532187798   75
0.96446195 1.72888476 103.00000000 -535.788367823871   76
0.96446195 1.64388476 103.00000000 -535.788340935313   77
0.96446195 1.73388476 103.00000000 -535.788189420533   78
0.96446195 1.63888476 103.00000000 -535.788121574579   79
0.96446195 1.73888476 103.00000000 -535.787994745523   80
0.96446195 1.63388476 103.00000000 -535.787873284810   81
0.96446195 1.74388476 103.00000000 -535.787784321329   82
0.96446195 1.62888476 103.00000000 -535.787595223549   83
0.96446195 1.74888476 103.00000000 -535.787558656440   84
0.96446195 1.62388476 103.00000000 -535.787286526755   85
0.96446195 1.75388476 103.00000000 -535.787318250020   86
0.96446195 1.61888476 103.00000000 -535.786946309575   87
0.96446195 1.75888476 103.00000000 -535.787063589596   88
0.96446195 1.61388476 103.00000000 -535.786573662058   89
0.96446195 1.76388476 103.00000000 -535.786795150349   90
0.96446195 1.60888476 103.00000000 -535.786167651492   91
0.96446195 1.76888476 103.00000000 -535.786513398138   92
0.96446195 1.60388476 103.00000000 -535.785727319613   93
0.96446195 1.77388476 103.00000000 -535.786218787350   94
0.96446195 1.59888476 103.00000000 -535.785251682903   95
0.96446195 1.77888476 103.00000000 -535.785911762237   96
0.96446195 1.59388476 103.00000000 -535.784739729536   97
0.96446195 1.78388476 103.00000000 -535.785592757200   98
0.96446195 1.58888476 103.00000000 -535.784190421143   99
0.96446195 1.78888476 103.00000000 -535.785262196887  100
0.96446195 1.57888476 103.00000000 -535.782975431111  101
0.96446195 1.79888476 103.00000000 -535.784568060549  102
0.96446195 1.56888476 103.00000000 -535.781597776923  103
0.96446195 1.80888476 103.00000000 -535.783832560738  104
0.96446195 1.81388476 103.00000000 -535.783450262658  105
0.96446195 1.56388476 103.00000000 -535.780845007331  106
0.96446195 1.83888476 103.00000000 -535.781407844662  107
0.96446195 1.53888476 103.00000000 -535.776390592819  108
0.96446195 1.48888476 103.00000000 -535.763413688469  109
0.96446195 1.98888476 103.00000000 -535.766427953550  110
0.96446195 1.38888476 103.00000000 -535.713756009998  111
0.96446195 2.08888476 103.00000000 -535.755803434421  112
0.96446195 1.28888476 103.00000000 -535.628287075649  113
0.96446195 2.18888476 103.00000000 -535.745899084228  114
0.96446195 2.28888476 103.00000000 -535.737220487635  115
0.96446195 2.38888476 103.00000000 -535.729956861376  116
0.96446195 2.48888476 103.00000000 -535.724087889630  117
0.96446195 2.58888476 103.00000000 -535.719472271362  118
0.96446195 2.68888476 103.00000000 -535.715914952195  119
0.96446195 1.25000000 103.00000000 -535.577447987671 6363
0.96446195 1.25628141 103.00000000 -535.586434259051 6364
0.96446195 1.26256281 103.00000000 -535.595109022873 6365
0.96446195 1.26884422 103.00000000 -535.603482138791 6366
0.96446195 1.27512563 103.00000000 -535.611562699895 6367
0.96446195 1.28140704 103.00000000 -535.619360648799 6368
0.96446195 1.28768844 103.00000000 -535.626884486686 6369
0.96446195 1.29396985 103.00000000 -535.634142802780 6370
0.96446195 1.30025126 103.00000000 -535.641143849691 6371
0.96446195 1.30653266 103.00000000 -535.647895584252 6372
0.96446195 1.31281407 103.00000000 -535.654405700627 6373
0.96446195 1.31909548 103.00000000 -535.660681566473 6374
0.96446195 1.32537688 103.00000000 -535.666730250511 6375
0.96446195 1.33165829 103.00000000 -535.672558542529 6376
0.96446195 1.33793970 103.00000000 -535.678172871852 6377
0.96446195 1.34422111 103.00000000 -535.683579304831 6378
0.96446195 1.35050251 103.00000000 -535.688783439199 6379
0.96446195 1.35678392 103.00000000 -535.693790256135 6380
0.96446195 1.36306533 103.00000000 -535.698603637414 6381
0.96446195 1.36934673 103.00000000 -535.703225169125 6382
0.96446195 1.37562814 103.00000000 -535.707649523782 6383
0.96446195 1.38190955 103.00000000 -535.711824239073 6384
0.96446195 1.38819095 103.00000000 -535.713300774708 6385
0.96446195 1.39447236 103.00000000 -535.717372342308 6386
0.96446195 1.40075377 103.00000000 -535.721343078668 6387
0.96446195 1.40703518 103.00000000 -535.725231696940 6388
0.96446195 1.41331658 103.00000000 -535.729051137323 6389
0.96446195 1.41959799 103.00000000 -535.732788673364 6390
0.96446195 1.42587940 103.00000000 -535.736390400947 6391
0.96446195 1.43216080 103.00000000 -535.739803633334 6392
0.96446195 1.43844221 103.00000000 -535.743022216851 6393
0.96446195 1.44472362 103.00000000 -535.746063751515 6394
0.96446195 1.45100503 103.00000000 -535.748944922596 6395
0.96446195 1.45728643 103.00000000 -535.751677274881 6396
0.96446195 1.46356784 103.00000000 -535.754268981822 6397
0.96446195 1.46984925 103.00000000 -535.756726565843 6398
0.96446195 1.47613065 103.00000000 -535.759055881642 6399
0.96446195 1.48241206 103.00000000 -535.761262515623 6400
0.96446195 1.48869347 103.00000000 -535.763351846425 6401
0.96446195 1.49497487 103.00000000 -535.765329024291 6402
0.96446195 1.50125628 103.00000000 -535.767198932824 6403
0.96446195 1.50753769 103.00000000 -535.768966145428 6404
0.96446195 1.51381910 103.00000000 -535.770635760302 6405
0.96446195 1.52010050 103.00000000 -535.772210101597 6406
0.96446195 1.52638191 103.00000000 -535.773693747350 6407
0.96446195 1.53266332 103.00000000 -535.775090195284 6408
0.96446195 1.53894472 103.00000000 -535.776402734992 6409
0.96446195 1.54522613 103.00000000 -535.777634481484 6410
0.96446195 1.55150754 103.00000000 -535.778788381424 6411
0.96446195 1.55778894 103.00000000 -535.779867238457 6412
0.96446195 1.56407035 103.00000000 -535.780873731837 6413
0.96446195 1.57035176 103.00000000 -535.781810420257 6414
0.96446195 1.57663317 103.00000000 -535.782679758116 6415
0.96446195 1.58291457 103.00000000 -535.783484101861 6416
0.96446195 1.58919598 103.00000000 -535.784225722589 6417
0.96446195 1.59547739 103.00000000 -535.784906804122 6418
0.96446195 1.60175879 103.00000000 -535.785529454082 6419
0.96446195 1.60804020 103.00000000 -535.786095709869 6420
0.96446195 1.61432161 103.00000000 -535.786607536801 6421
0.96446195 1.62060302 103.00000000 -535.787066836840 6422
0.96446195 1.62688442 103.00000000 -535.787475449153 6423
0.96446195 1.63316583 103.00000000 -535.787835155805 6424
0.96446195 1.63944724 103.00000000 -535.788147680491 6425
0.96446195 1.64572864 103.00000000 -535.788414693197 6426
0.96446195 1.65201005 103.00000000 -535.788637813134 6427
0.96446195 1.65829146 103.00000000 -535.788818608718 6428
0.96446195 1.66457286 103.00000000 -535.788958600702 6429
0.96446195 1.67085427 103.00000000 -535.789059264178 6430
0.96446195 1.67713568 103.00000000 -535.789122029446 6431
0.96446195 1.68341709 103.00000000 -535.789148283815 6432
0.96446195 1.68969849 103.00000000 -535.789139374032 6433
0.96446195 1.69597990 103.00000000 -535.789096606884 6434
0.96446195 1.70226131 103.00000000 -535.789021250037 6435
0.96446195 1.70854271 103.00000000 -535.788914534948 6436
0.96446195 1.71482412 103.00000000 -535.788777657010 6437
0.96446195 1.72110553 103.00000000 -535.788611776113 6438
0.96446195 1.72738693 103.00000000 -535.788418020038 6439
0.96446195 1.73366834 103.00000000 -535.788197482758 6440
0.96446195 1.73994975 103.00000000 -535.787951228046 6441
0.96446195 1.74623116 103.00000000 -535.787680287899 6442
0.96446195 1.75251256 103.00000000 -535.787385666612 6443
0.96446195 1.75879397 103.00000000 -535.787068337796 6444
0.96446195 1.76507538 103.00000000 -535.786729248898 6445
0.96446195 1.77135678 103.00000000 -535.786369320641 6446
0.96446195 1.77763819 103.00000000 -535.785989445707 6447
0.96446195 1.78391960 103.00000000 -535.785590493367 6448
0.96446195 1.79020101 103.00000000 -535.785173307753 6449
0.96446195 1.79648241 103.00000000 -535.784738709793 6450
0.96446195 1.80276382 103.00000000 -535.784287494835 6451
0.96446195 1.80904523 103.00000000 -535.783820437819 6452
0.96446195 1.81532663 103.00000000 -535.783338291968 6453
0.96446195 1.82160804 103.00000000 -535.782841787301 6454
0.96446195 1.82788945 103.00000000 -535.782331633882 6455
0.96446195 1.83417085 103.00000000 -535.781808523206 6456
0.96446195 1.84045226 103.00000000 -535.781273123218 6457
0.96446195 1.84673367 103.00000000 -535.780726085987 6458
0.96446195 1.85301508 103.00000000 -535.780168043132 6459
0.96446195 1.85929648 103.00000000 -535.779599611904 6460
0.96446195 1.86557789 103.00000000 -535.779021385138 6461
0.96446195 1.87185930 103.00000000 -535.778433943909 6462
0.96446195 1.87814070 103.00000000 -535.777837850759 6463
0.96446195 1.88442211 103.00000000 -535.777233650571 6464
0.96446195 1.89070352 103.00000000 -535.776621873120 6465
0.96446195 1.89698492 103.00000000 -535.776003034634 6466
0.96446195 1.90326633 103.00000000 -535.775377632046 6467
0.96446195 1.90954774 103.00000000 -535.774746150383 6468
0.96446195 1.91582915 103.00000000 -535.774109060489 6469
0.96446195 1.92211055 103.00000000 -535.773466818439 6470
0.96446195 1.92839196 103.00000000 -535.772819864578 6471
0.96446195 1.93467337 103.00000000 -535.772168628517 6472
0.96446195 1.94095477 103.00000000 -535.771513527272 6473
0.96446195 1.94723618 103.00000000 -535.770854961269 6474
0.96446195 1.95351759 103.00000000 -535.770193322340 6475
0.96446195 1.95979899 103.00000000 -535.769528989501 6476
0.96446195 1.96608040 103.00000000 -535.768862327551 6477
0.96446195 1.97236181 103.00000000 -535.768193691940 6478
0.96446195 1.97864322 103.00000000 -535.767523426510 6479
0.96446195 1.98492462 103.00000000 -535.766851864278 6480
0.96446195 1.99120603 103.00000000 -535.766179326044 6481
0.96446195 1.99748744 103.00000000 -535.765506123125 6482
0.96446195 2.00376884 103.00000000 -535.764832558808 6483
0.96446195 2.01005025 103.00000000 -535.764158920947 6484
0.96446195 2.01633166 103.00000000 -535.763485492198 6485
0.96446195 2.02261307 103.00000000 -535.762812544147 6486
0.96446195 2.02889447 103.00000000 -535.762140339985 6487
0.96446195 2.03517588 103.00000000 -535.761469130708 6488
0.96446195 2.04145729 103.00000000 -535.760799161823 6489
0.96446195 2.04773869 103.00000000 -535.760130669712 6490
0.96446195 2.05402010 103.00000000 -535.759463879450 6491
0.96446195 2.06030151 103.00000000 -535.758799010649 6492
0.96446195 2.06658291 103.00000000 -535.758136274541 6493
0.96446195 2.07286432 103.00000000 -535.757475872300 6494
0.96446195 2.07914573 103.00000000 -535.756817998961 6495
0.96446195 2.08542714 103.00000000 -535.756162842407 6496
0.96446195 2.09170854 103.00000000 -535.755510583098 6497
0.96446195 2.09798995 103.00000000 -535.754861391777 6498
0.96446195 2.10427136 103.00000000 -535.754215434781 6499
0.96446195 2.11055276 103.00000000 -535.753572872008 6500
0.96446195 2.11683417 103.00000000 -535.752933852884 6501
0.96446195 2.12311558 103.00000000 -535.752298523978 6502
0.96446195 2.12939698 103.00000000 -535.751667025370 6503
0.96446195 2.13567839 103.00000000 -535.751039487413 6504
0.96446195 2.14195980 103.00000000 -535.750416038081 6505
0.96446195 2.14824121 103.00000000 -535.749796797405 6506
0.96446195 2.15452261 103.00000000 -535.749181881947 6507
0.96446195 2.16080402 103.00000000 -535.748571398269 6508
0.96446195 2.16708543 103.00000000 -535.747965451888 6509
0.96446195 2.17336683 103.00000000 -535.747364141598 6510
0.96446195 2.17964824 103.00000000 -535.746767558607 6511
0.96446195 2.18592965 103.00000000 -535.746175792485 6512
0.96446195 2.19221106 103.00000000 -535.745588926499 6513
0.96446195 2.19849246 103.00000000 -535.745007039963 6514
0.96446195 2.20477387 103.00000000 -535.744430204596 6515
0.96446195 2.21105528 103.00000000 -535.743858490336 6516
0.96446195 2.21733668 103.00000000 -535.743291962550 6517
0.96446195 2.22361809 103.00000000 -535.742730679922 6518
0.96446195 2.22989950 103.00000000 -535.742174699206 6519
0.96446195 2.23618090 103.00000000 -535.741624072976 6520
0.96446195 2.24246231 103.00000000 -535.741078847602 6521
0.96446195 2.24874372 103.00000000 -535.740539066856 6522
0.96446195 2.25502513 103.00000000 -535.740004770639 6523
0.96446195 2.26130653 103.00000000 -535.739475995758 6524
0.96446195 2.26758794 103.00000000 -535.738952772789 6525
0.96446195 2.27386935 103.00000000 -535.738435129422 6526
0.96446195 2.28015075 103.00000000 -535.737923093922 6527
0.96446195 2.28643216 103.00000000 -535.737416685188 6528
0.96446195 2.29271357 103.00000000 -535.736915921903 6529
0.96446195 2.29899497 103.00000000 -535.736420818960 6530
0.96446195 2.30527638 103.00000000 -535.735931386615 6531
0.96446195 2.31155779 103.00000000 -535.735447634660 6532
0.96446195 2.31783920 103.00000000 -535.734969567380 6533
0.96446195 2.32412060 103.00000000 -535.734497188748 6534
0.96446195 2.33040201 103.00000000 -535.734030497100 6535
0.96446195 2.33668342 103.00000000 -535.733569489075 6536
0.96446195 2.34296482 103.00000000 -535.733114160379 6537
0.96446195 2.34924623 103.00000000 -535.732664501304 6538
0.96446195 2.35552764 103.00000000 -535.732220501640 6539
0.96446195 2.36180905 103.00000000 -535.731782148599 6540
0.96446195 2.36809045 103.00000000 -535.731349427049 6541
0.96446195 2.37437186 103.00000000 -535.730922318644 6542
0.96446195 2.38065327 103.00000000 -535.730500804400 6543
0.96446195 2.38693467 103.00000000 -535.730084862396 6544
0.96446195 2.39321608 103.00000000 -535.729674468711 6545
0.96446195 2.39949749 103.00000000 -535.729269601049 6546
0.96446195 2.40577889 103.00000000 -535.728870225898 6547
0.96446195 2.41206030 103.00000000 -535.728476320760 6548
0.96446195 2.41834171 103.00000000 -535.728087849418 6549
0.96446195 2.42462312 103.00000000 -535.727704786415 6550
0.96446195 2.43090452 103.00000000 -535.727327099661 6551
0.96446195 2.43718593 103.00000000 -535.726954746249 6552
0.96446195 2.44346734 103.00000000 -535.726587693676 6553
0.96446195 2.44974874 103.00000000 -535.726225905515 6554
0.96446195 2.45603015 103.00000000 -535.725869341538 6555
0.96446195 2.46231156 103.00000000 -535.725517963319 6556
0.96446195 2.46859296 103.00000000 -535.725171730169 6557
0.96446195 2.47487437 103.00000000 -535.724830599524 6558
0.96446195 2.48115578 103.00000000 -535.724494529081 6559
0.96446195 2.48743719 103.00000000 -535.724163475525 6560
0.96446195 2.49371859 103.00000000 -535.723837394332 6561
0.96446195 2.50000000 103.00000000 -535.723516239913 6562
0.96446195 2.51000000 103.00000000 -535.723015013807 6862
0.96446195 2.52000000 103.00000000 -535.722525968982 6863
0.96446195 2.53000000 103.00000000 -535.722048912564 6864
0.96446195 2.54000000 103.00000000 -535.721583648674 6865
0.96446195 2.55000000 103.00000000 -535.721129976940 6866
0.96446195 2.56000000 103.00000000 -535.720687695476 6867
0.96446195 2.57000000 103.00000000 -535.720256600189 6868
0.96446195 2.58000000 103.00000000 -535.719836486811 6869
0.96446195 2.59000000 103.00000000 -535.719427147269 6870
0.96446195 2.60000000 103.00000000 -535.719028370904 6871
0.96446195 2.61000000 103.00000000 -535.718639951331 6872
0.96446195 2.62000000 103.00000000 -535.718261678546 6873
0.96446195 2.63000000 103.00000000 -535.717893344793 6874
0.96446195 2.64000000 103.00000000 -535.717534741573 6875
0.96446195 2.65000000 103.00000000 -535.717185661196 6876
0.96446195 2.66000000 103.00000000 -535.716845898607 6877
0.96446195 2.67000000 103.00000000 -535.716515247449 6878
0.96446195 2.68000000 103.00000000 -535.716193502067 6879
0.96446195 2.69000000 103.00000000 -535.715880466342 6880
0.96446195 2.70000000 103.00000000 -535.715575938395 6881
0.96446195 2.71000000 103.00000000 -535.715279721166 6882
0.96446195 2.72000000 103.00000000 -535.714991621430 6883
0.96446195 2.73000000 103.00000000 -535.714711445325 6884
0.96446195 2.74000000 103.00000000 -535.714439006928 6885
0.96446195 2.75000000 103.00000000 -535.714174118742 6886
0.96446195 2.76000000 103.00000000 -535.713916595898 6887
0.96446195 2.77000000 103.00000000 -535.713666260378 6888
0.96446195 2.78000000 103.00000000 -535.713422935002 6889
0.96446195 2.79000000 103.00000000 -535.713186443489 6890
0.96446195 2.80000000 103.00000000 -535.712956615822 6891
0.96446195 2.81000000 103.00000000 -535.712733283695 6892
0.96446195 2.82000000 103.00000000 -535.712516281623 6893
0.96446195 2.83000000 103.00000000 -535.712305447618 6894
0.96446195 2.84000000 103.00000000 -535.712100622563 6895
0.96446195 2.85000000 103.00000000 -535.711901650408 6896
0.96446195 2.86000000 103.00000000 -535.711708378046 6897
0.96446195 2.87000000 103.00000000 -535.711520655466 6898
0.96446195 2.88000000 103.00000000 -535.711338336026 6899
0.96446195 2.89000000 103.00000000 -535.711161275094 6900
0.96446195 2.90000000 103.00000000 -535.710989332371 6901
0.96446195 2.91000000 103.00000000 -535.710822369203 6902
0.96446195 2.92000000 103.00000000 -535.710660251045 6903
0.96446195 2.93000000 103.00000000 -535.710502845358 6904
0.96446195 2.94000000 103.00000000 -535.710350019785 6905
0.96446195 2.95000000 103.00000000 -535.710201657924 6906
0.96446195 2.96000000 103.00000000 -535.710057626389 6907
0.96446195 2.97000000 103.00000000 -535.709917807663 6908
0.96446195 2.98000000 103.00000000 -535.709782084315 6909
0.96446195 2.99000000 103.00000000 -535.709650340888 6910
0.96446195 3.00000000 103.00000000 -535.709522465482 6911
0.96446195 3.01000000 103.00000000 -535.709398348032 6912
0.96446195 3.02000000 103.00000000 -535.709277881831 6913
0.96446195 3.03000000 103.00000000 -535.709160962759 6914
0.96446195 3.04000000 103.00000000 -535.709047486987 6915
0.96446195 3.05000000 103.00000000 -535.708937361086 6916
0.96446195 3.06000000 103.00000000 -535.708830482487 6917
0.96446195 3.07000000 103.00000000 -535.708726759391 6918
0.96446195 3.08000000 103.00000000 -535.708626099376 6919
0.96446195 3.09000000 103.00000000 -535.708528413277 6920
0.96446195 3.10000000 103.00000000 -535.708433614089 6921
0.96446195 3.11000000 103.00000000 -535.708341616812 6922
0.96446195 3.12000000 103.00000000 -535.708252343528 6923
0.96446195 3.13000000 103.00000000 -535.708165704790 6924
0.96446195 3.14000000 103.00000000 -535.708081626995 6925
0.96446195 3.15000000 103.00000000 -535.708000033355 6926
0.96446195 3.16000000 103.00000000 -535.707920850564 6927
0.96446195 3.17000000 103.00000000 -535.707844005622 6928
0.96446195 3.18000000 103.00000000 -535.707769427709 6929
0.96446195 3.19000000 103.00000000 -535.707697051166 6930
0.96446195 3.20000000 103.00000000 -535.707626808070 6931
0.96446195 3.21000000 103.00000000 -535.707558627258 6932
0.96446195 3.22000000 103.00000000 -535.707492460008 6933
0.96446195 3.23000000 103.00000000 -535.707428237102 6934
0.96446195 3.24000000 103.00000000 -535.707365900208 6935
0.96446195 3.25000000 103.00000000 -535.707305391412 6936
0.96446195 3.26000000 103.00000000 -535.707246655239 6937
0.96446195 3.27000000 103.00000000 -535.707189636725 6938
0.96446195 3.28000000 103.00000000 -535.707134283586 6939
0.96446195 3.29000000 103.00000000 -535.707080543471 6940
0.96446195 3.30000000 103.00000000 -535.707028367695 6941
0.96446195 3.31000000 103.00000000 -535.706977706424 6942
0.96446195 3.32000000 103.00000000 -535.706928513046 6943
0.96446195 3.33000000 103.00000000 -535.706880741362 6944
0.96446195 3.34000000 103.00000000 -535.706834347678 6945
0.96446195 3.35000000 103.00000000 -535.706789266623 6946
0.96446195 3.36000000 103.00000000 -535.706745503802 6947
0.96446195 3.37000000 103.00000000 -535.706702990997 6948
0.96446195 3.38000000 103.00000000 -535.706661691310 6949
0.96446195 3.39000000 103.00000000 -535.706621565791 6950
0.96446195 3.40000000 103.00000000 -535.706582577789 6951
0.96446195 3.41000000 103.00000000 -535.706544691304 6952
0.96446195 3.42000000 103.00000000 -535.706507871438 6953
0.96446195 3.43000000 103.00000000 -535.706472084736 6954
0.96446195 3.44000000 103.00000000 -535.706437297352 6955
0.96446195 3.45000000 103.00000000 -535.706403477040 6956
0.96446195 3.46000000 103.00000000 -535.706370596209 6957
0.96446195 3.47000000 103.00000000 -535.706338623016 6958
0.96446195 3.48000000 103.00000000 -535.706307528763 6959
0.96446195 3.49000000 103.00000000 -535.706277285214 6960
0.96446195 3.50000000 103.00000000 -535.706247865569 6961
end