structural
morse    2
rOHe    0   0   0    0          0.96446195
rOCle   0   0   0    0          1.68888476
alphae  0   0   0    0          103.000000
am1     0   0   0    0          1.00000000
am2     0   0   0    0          1.00000000
end

linear
f    0   0   1    1     0.0000000
f    0   0   2    1     0.0000000
f    0   0   3    1     0.0000000
f    0   0   4    1     0.0000000
f    0   0   5    1     0.0000000
f    0   0   6    1     0.0000000
f    0   0   7    1     0.0000000
f    0   0   8    1     0.0000000
f    0   1   0    1     0.0000000
f    0   2   0    1     0.0000000
f    0   3   0    1     0.0000000
f    0   4   0    1     0.0000000
f    0   5   0    1     0.0000000
f    0   6   0    1     0.0000000
f    0   7   0    1     0.0000000
f    0   8   0    1     0.0000000
f    1   0   0    1     0.0000000
f    2   0   0    1     0.0000000
f    3   0   0    1     0.0000000
f    4   0   0    1     0.0000000
f    5   0   0    1     0.0000000
f    6   0   0    1     0.0000000
f    7   0   0    1     0.0000000
f    8   0   0    1     0.0000000
f    0   1   1    1     0.0000000
f    0   1   2    1     0.0000000
f    0   1   3    1     0.0000000
f    0   1   4    1     0.0000000
f    0   1   5    1     0.0000000
f    0   1   6    1     0.0000000
f    0   1   7    1     0.0000000
f    0   2   1    1     0.0000000
f    0   2   2    1     0.0000000
f    0   2   3    1     0.0000000
f    0   2   4    1     0.0000000
f    0   2   5    1     0.0000000
f    0   2   6    1     0.0000000
f    0   3   1    1     0.0000000
f    0   3   2    1     0.0000000
f    0   3   3    1     0.0000000
f    0   3   4    1     0.0000000
f    0   3   5    1     0.0000000
f    0   4   1    1     0.0000000
f    0   4   2    1     0.0000000
f    0   4   3    1     0.0000000
f    0   4   4    1     0.0000000
f    0   5   1    1     0.0000000
f    0   5   2    1     0.0000000
f    0   5   3    1     0.0000000
f    0   6   1    1     0.0000000
f    0   6   2    1     0.0000000
f    0   7   1    1     0.0000000
f    1   0   1    1     0.0000000
f    1   0   2    1     0.0000000
f    1   0   3    1     0.0000000
f    1   0   4    1     0.0000000
f    1   0   5    1     0.0000000
f    1   0   6    1     0.0000000
f    1   0   7    1     0.0000000
f    1   1   0    1     0.0000000
f    1   2   0    1     0.0000000
f    1   3   0    1     0.0000000
f    1   4   0    1     0.0000000
f    1   5   0    1     0.0000000
f    1   6   0    1     0.0000000
f    1   7   0    1     0.0000000
f    2   0   1    1     0.0000000
f    2   0   2    1     0.0000000
f    2   0   3    1     0.0000000
f    2   0   4    1     0.0000000
f    2   0   5    1     0.0000000
f    2   0   6    1     0.0000000
f    2   1   0    1     0.0000000
f    2   2   0    1     0.0000000
f    2   3   0    1     0.0000000
f    2   4   0    1     0.0000000
f    2   5   0    1     0.0000000
f    2   6   0    1     0.0000000
f    3   0   1    1     0.0000000
f    3   0   2    1     0.0000000
f    3   0   3    1     0.0000000
f    3   0   4    1     0.0000000
f    3   0   5    1     0.0000000
f    3   1   0    1     0.0000000
f    3   2   0    1     0.0000000
f    3   3   0    1     0.0000000
f    3   4   0    1     0.0000000
f    3   5   0    1     0.0000000
f    4   0   1    1     0.0000000
f    4   0   2    1     0.0000000
f    4   0   3    1     0.0000000
f    4   0   4    1     0.0000000
f    4   1   0    1     0.0000000
f    4   2   0    1     0.0000000
f    4   3   0    1     0.0000000
f    4   4   0    1     0.0000000
f    5   0   1    1     0.0000000
f    5   0   2    1     0.0000000
f    5   0   3    1     0.0000000
f    5   1   0    1     0.0000000
f    5   2   0    1     0.0000000
f    5   3   0    1     0.0000000
f    6   0   1    1     0.0000000
f    6   0   2    1     0.0000000
f    6   1   0    1     0.0000000
f    6   2   0    1     0.0000000
f    7   0   1    1     0.0000000
f    7   1   0    1     0.0000000
f    1   1   1    1     0.0000000
f    1   1   2    1     0.0000000
f    1   1   3    1     0.0000000
f    1   1   4    1     0.0000000
f    1   1   5    1     0.0000000
f    1   1   6    1     0.0000000
f    1   2   1    1     0.0000000
f    1   2   2    1     0.0000000
f    1   2   3    1     0.0000000
f    1   2   4    1     0.0000000
f    1   2   5    1     0.0000000
f    1   3   1    1     0.0000000
f    1   3   2    1     0.0000000
f    1   3   3    1     0.0000000
f    1   3   4    1     0.0000000
f    1   4   1    1     0.0000000
f    1   4   2    1     0.0000000
f    1   4   3    1     0.0000000
f    1   5   1    1     0.0000000
f    1   5   2    1     0.0000000
f    1   6   1    1     0.0000000
f    2   1   1    1     0.0000000
f    2   1   2    1     0.0000000
f    2   1   3    1     0.0000000
f    2   1   4    1     0.0000000
f    2   1   5    1     0.0000000
f    2   2   1    1     0.0000000
f    2   2   2    1     0.0000000
f    2   2   3    1     0.0000000
f    2   2   4    1     0.0000000
f    2   3   1    1     0.0000000
f    2   3   2    1     0.0000000
f    2   3   3    1     0.0000000
f    2   4   1    1     0.0000000
f    2   4   2    1     0.0000000
f    2   5   1    1     0.0000000
f    3   1   1    1     0.0000000
f    3   1   2    1     0.0000000
f    3   1   3    1     0.0000000
f    3   1   4    1     0.0000000
f    3   2   1    1     0.0000000
f    3   2   2    1     0.0000000
f    3   2   3    1     0.0000000
f    3   3   1    1     0.0000000
f    3   3   2    1     0.0000000
f    3   4   1    1     0.0000000
f    4   1   1    1     0.0000000
f    4   1   2    1     0.0000000
f    4   1   3    1     0.0000000
f    4   2   1    1     0.0000000
f    4   2   2    1     0.0000000
f    4   3   1    1     0.0000000
f    5   1   1    1     0.0000000
f    5   1   2    1     0.0000000
f    5   2   1    1     0.0000000
f    6   1   1    1     0.0000000
end

grid
0.96446195000000 1.68888476000000 103.00000000000000 -1.86735166000551
0.95946195000000 1.68888476000000 103.00000000000000 -1.86735114577459
0.99446195000000 1.68888476000000 103.00000000000000 -1.86735592737489
0.92946195000000 1.68888476000000 103.00000000000000 -1.86734921310926
0.99946195000000 1.68888476000000 103.00000000000000 -1.86735683658685
0.92446195000000 1.68888476000000 103.00000000000000 -1.86734907558628
1.00446195000000 1.68888476000000 103.00000000000000 -1.86735780152685
0.91946195000000 1.68888476000000 103.00000000000000 -1.86734898869008
1.00946195000000 1.68888476000000 103.00000000000000 -1.86735882236394
0.91446195000000 1.68888476000000 103.00000000000000 -1.86734895071572
1.01446195000000 1.68888476000000 103.00000000000000 -1.86735989836802
0.90946195000000 1.68888476000000 103.00000000000000 -1.86734896069186
1.01946195000000 1.68888476000000 103.00000000000000 -1.86736102973725
0.90446195000000 1.68888476000000 103.00000000000000 -1.86734901643581
1.02446195000000 1.68888476000000 103.00000000000000 -1.86736221565343
0.89946195000000 1.68888476000000 103.00000000000000 -1.86734911701944
1.02946195000000 1.68888476000000 103.00000000000000 -1.86736345615759
0.89446195000000 1.68888476000000 103.00000000000000 -1.86734926091015
1.03446195000000 1.68888476000000 103.00000000000000 -1.86736474940335
0.88946195000000 1.68888476000000 103.00000000000000 -1.86734944634100
1.03946195000000 1.68888476000000 103.00000000000000 -1.86736609626325
0.88446195000000 1.68888476000000 103.00000000000000 -1.86734967074699
1.04446195000000 1.68888476000000 103.00000000000000 -1.86736749519844
0.87946195000000 1.68888476000000 103.00000000000000 -1.86734993244249
1.04946195000000 1.68888476000000 103.00000000000000 -1.86736894625608
1.05446195000000 1.68888476000000 103.00000000000000 -1.86737044805500
0.86946195000000 1.68888476000000 103.00000000000000 -1.86735056063185
1.05946195000000 1.68888476000000 103.00000000000000 -1.86737200014784
1.06446195000000 1.68888476000000 103.00000000000000 -1.86737360214545
0.85446195000000 1.68888476000000 103.00000000000000 -1.86735173205261
1.07446195000000 1.68888476000000 103.00000000000000 -1.86737695227976
1.08446195000000 1.68888476000000 103.00000000000000 -1.86738049285589
0.83946195000000 1.68888476000000 103.00000000000000 -1.86735312537928
1.11446195000000 1.68888476000000 103.00000000000000 -1.86739219193919
0.81446195000000 1.68888476000000 103.00000000000000 -1.86735578339085
0.76446195000000 1.68888476000000 103.00000000000000 -1.86736167682807
1.26446195000000 1.68888476000000 103.00000000000000 -1.86746942008847
1.36446195000000 1.68888476000000 103.00000000000000 -1.86753009618610
1.46446195000000 1.68888476000000 103.00000000000000 -1.86758983467075
1.66446195000000 1.68888476000000 103.00000000000000 -1.86768856756055
0.96446195000000 1.68388476000000 103.00000000000000 -1.86733154541139
0.96446195000000 1.69388476000000 103.00000000000000 -1.86737151088312
0.96446195000000 1.67888476000000 103.00000000000000 -1.86731115863279
0.96446195000000 1.67388476000000 103.00000000000000 -1.86729049187329
0.96446195000000 1.70388476000000 103.00000000000000 -1.86741045333702
0.96446195000000 1.66888476000000 103.00000000000000 -1.86726953684615
0.96446195000000 1.66388476000000 103.00000000000000 -1.86724828539502
0.96446195000000 1.71388476000000 103.00000000000000 -1.86744843406780
0.96446195000000 1.65888476000000 103.00000000000000 -1.86722672839016
0.96446195000000 1.65388476000000 103.00000000000000 -1.86720485852538
0.96446195000000 1.63888476000000 103.00000000000000 -1.86713728215011
0.96446195000000 1.73888476000000 103.00000000000000 -1.86753957580129
0.96446195000000 1.63388476000000 103.00000000000000 -1.86711407176256
0.96446195000000 1.74388476000000 103.00000000000000 -1.86755720956580
0.96446195000000 1.62888476000000 103.00000000000000 -1.86709050532045
0.96446195000000 1.74888476000000 103.00000000000000 -1.86757466047993
0.96446195000000 1.62388476000000 103.00000000000000 -1.86706657272111
0.96446195000000 1.75388476000000 103.00000000000000 -1.86759193510693
0.96446195000000 1.61888476000000 103.00000000000000 -1.86704226551274
0.96446195000000 1.75888476000000 103.00000000000000 -1.86760904096366
0.96446195000000 1.61388476000000 103.00000000000000 -1.86701757499554
0.96446195000000 1.76388476000000 103.00000000000000 -1.86762598384541
0.96446195000000 1.60888476000000 103.00000000000000 -1.86699249153401
0.96446195000000 1.76888476000000 103.00000000000000 -1.86764277027487
0.96446195000000 1.60388476000000 103.00000000000000 -1.86696700681694
0.96446195000000 1.77388476000000 103.00000000000000 -1.86765940596945
0.96446195000000 1.59888476000000 103.00000000000000 -1.86694111052338
0.96446195000000 1.59388476000000 103.00000000000000 -1.86691479438184
0.96446195000000 1.58888476000000 103.00000000000000 -1.86688804863263
0.96446195000000 1.57888476000000 103.00000000000000 -1.86683323115983
0.96446195000000 1.79888476000000 103.00000000000000 -1.86774051899613
0.96446195000000 1.56888476000000 103.00000000000000 -1.86677658199903
0.96446195000000 1.80888476000000 103.00000000000000 -1.86777209908519
0.96446195000000 1.81388476000000 103.00000000000000 -1.86778772298601
0.96446195000000 1.56388476000000 103.00000000000000 -1.86674754683384
0.96446195000000 1.83888476000000 103.00000000000000 -1.86786434663577
0.96446195000000 1.53888476000000 103.00000000000000 -1.86659486902636
0.96446195000000 1.48888476000000 103.00000000000000 -1.86624793306885
0.96446195000000 1.38888476000000 103.00000000000000 -1.86535137040539
0.96446195000000 1.28888476000000 103.00000000000000 -1.86414795809014
0.96446195000000 1.68888476000000 102.00000000000000 -1.86735817330668
0.96446195000000 1.68888476000000 105.00000000000000 -1.86733779448139
0.96446195000000 1.68888476000000 101.00000000000000 -1.86736429364339
0.96446195000000 1.68888476000000 100.50000000000000 -1.86736717554368
0.96446195000000 1.68888476000000 100.00000000000000 -1.86736992115618
0.96446195000000 1.68888476000000 107.00000000000000 -1.86732326894730
0.96446195000000 1.68888476000000  98.00000000000000 -1.86737923933470
0.96446195000000 1.68888476000000  98.00000000000000 -1.86737923933470
0.96446195000000 1.68888476000000 110.50000000000000 -1.86729745888329
0.96446195000000 1.68888476000000  95.50000000000000 -1.86738586918170
0.96446195000000 1.68888476000000  93.00000000000000 -1.86738465946769
0.96446195000000 1.68888476000000 120.50000000000000 -1.86723003666782
0.96446195000000 1.68888476000000  85.50000000000000 -1.86730707184734
0.96446195000000 1.68888476000000 123.00000000000000 -1.86721576576929
0.96446195000000 1.68888476000000  83.00000000000000 -1.86724856773242
0.96446195000000 1.68888476000000 125.50000000000000 -1.86720270544799
0.96446195000000 1.68888476000000  80.50000000000000 -1.86717137884091
0.96446195000000 1.68888476000000 128.00000000000000 -1.86719081502031
0.96446195000000 1.68888476000000  78.00000000000000 -1.86707570181352
0.96446195000000 1.68888476000000 133.00000000000000 -1.86716985529654
0.96446195000000 1.68888476000000  73.00000000000000 -1.86683692985969
0.96446195000000 1.68888476000000 138.00000000000000 -1.86715035063150
0.96446195000000 1.68888476000000  68.00000000000000 -1.86656490865016
0.96446195000000 1.68888476000000 143.00000000000000 -1.86712801064766
0.96446195000000 1.68888476000000  63.00000000000000 -1.86631548232822
0.96446195000000 1.68888476000000 148.00000000000000 -1.86709735547095
0.96446195000000 1.68888476000000  58.00000000000000 -1.86613418015065
0.96446195000000 1.68888476000000 153.00000000000000 -1.86705313766515
0.96446195000000 1.68888476000000 163.00000000000000 -1.86692006926341
0.96446195000000 1.68888476000000  43.00000000000000 -1.86513728655859
0.96446195000000 1.68888476000000 173.00000000000000 -1.86678363371323
0.96446195000000 1.68888476000000 180.00000000000000 -1.86674736017642
1.16230627000000 1.75150156000000 103.00000000000000 -1.86765402094511
0.89590574000000 1.83858284000000 103.00000000000000 -1.86785200456995
0.96446195000000 1.92387026000000 129.27339301000001 -1.86807447056799
0.90154427000000 1.81542520000000 103.00000000000000 -1.86778268243552
1.34371700000000 1.65501426000000 103.00000000000000 -1.86737381370278
0.93413177000000 1.68888476000000  95.79554147000000 -1.86738161775463
1.04944394000000 1.56331514000000 103.00000000000000 -1.86675320899440
0.96446195000000 1.81375024000000 109.08229544000000 -1.86776267153607
1.16090462000000 1.68888476000000  74.89871955000000 -1.86713367898415
0.75596095000000 1.68888476000000 104.86471890999999 -1.86735350251149
0.87029844000000 1.51309446000000 103.00000000000000 -1.86643151972851
0.84934524000000 2.04532522000000 103.00000000000000 -1.86840870753758
0.95028017000000 1.68888476000000 110.45128012000001 -1.86729553251814
0.89985783000000 1.71434045000000 103.00000000000000 -1.86744603868544
1.10887792000000 1.88772027000000 103.00000000000000 -1.86806346646199
0.87068148000000 1.68888476000000  68.47436053000000 -1.86650903632244
1.01419001000000 1.68888476000000 127.52899197000001 -1.86721710108031
0.96105346000000 1.69171888000000 103.00000000000000 -1.86736257731366
1.21546648000000 1.58725847000000 103.00000000000000 -1.86695781677327
0.89712833000000 1.73160081000000 103.00000000000000 -1.86750837080683
1.14018532000000 1.68888476000000 117.38406251000001 -1.86734096916757
0.96446195000000 1.49306374000000 107.19265715000000 -1.86623709600406
0.96446195000000 1.63810273000000 127.41119356000000 -1.86696011482024
1.24206753000000 1.68888476000000  97.84864592000000 -1.86746366328464
0.96446195000000 1.75143658000000  90.97520461000001 -1.86759795841840
1.25333876000000 1.69060467000000 103.00000000000000 -1.86746997158548
0.96446195000000 1.59407480000000 104.25655079000001 -1.86690446433965
0.96446195000000 1.87532437000000  81.22337779000000 -1.86787705505344
0.91960947000000 1.40021095000000 103.00000000000000 -1.86546681345362
1.04462798000000 1.68888476000000  76.06147023000000 -1.86706892908876
0.99137116000000 1.87475582000000 103.00000000000000 -1.86797864796438
1.40149156000000 1.68888476000000 118.73187847000000 -1.86754683715151
1.30378478000000 1.68888476000000 123.66263475000000 -1.86746269702257
0.96446195000000 1.76842914000000  78.88455279999999 -1.86745755987090
0.98715142000000 1.68888476000000 133.73877092000001 -1.86717915151303
0.96446195000000 1.90175558000000 107.76807920000000 -1.86804014938048
0.95927528000000 1.68888476000000 104.23313401999999 -1.86734264146958
0.98017984000000 1.68888476000000  91.80600056999999 -1.86738449920540
1.31360365000000 1.68748834000000 103.00000000000000 -1.86749323297579
0.96446195000000 1.96044984000000 118.46760025000000 -1.86820530063710
1.05510547000000 1.60900127000000 103.00000000000000 -1.86700568350091
0.99373301000000 1.68888476000000  91.74533809000000 -1.86738776304855
0.96446195000000 1.74487273000000  66.10745448999999 -1.86674827301101
0.85908112000000 1.68888476000000  84.91264730000000 -1.86723300002768
0.89243821000000 1.43906689000000 103.00000000000000 -1.86584151733905
0.96446195000000 1.91921784000000  75.92479295000000 -1.86791893868167
1.29168253000000 1.64034640000000 103.00000000000000 -1.86727360522389
0.93925365000000 1.68888476000000  89.64178613000000 -1.86735741565747
1.01828762000000 1.68888476000000  80.65574509000000 -1.86721999589724
1.04526772000000 1.68888476000000  86.48615373000000 -1.86736449339674
0.98624567000000 1.56598865000000 103.00000000000000 -1.86676047475430
1.08296168000000 1.68888476000000  71.43276272999999 -1.86687802311110
1.07060218000000 1.64203701000000 103.00000000000000 -1.86717121091317
0.77040458000000 1.68888476000000 110.83738708999999 -1.86730990157366
0.82234158000000 1.96036056000000 103.00000000000000 -1.86819305195013
0.95133151000000 1.68888476000000 100.76483933000000 -1.86736450797525
0.96446195000000 1.56415881000000 135.72437022000000 -1.86648124868043
0.97358087000000 1.79057027000000 103.00000000000000 -1.86771591429283
0.98655498000000 1.87526678000000 103.00000000000000 -1.86797859627211
0.94312786000000 1.68888476000000  60.21479400000000 -1.86618860978797
1.17051702000000 1.68888476000000 109.61406540000000 -1.86739329198042
0.90708504000000 1.59848820000000 103.00000000000000 -1.86694076412618
0.74324755000000 1.68888476000000 116.63261057000000 -1.86727803985070
0.96446195000000 1.66435704000000 135.42477181000001 -1.86704606941703
0.96446195000000 1.43602255000000 111.09378012000001 -1.86573665352387
1.01708103000000 1.79460633000000 103.00000000000000 -1.86774104979474
0.96446195000000 1.76553577000000 105.61458057000000 -1.86761850371533
0.87629303000000 1.54880567000000 103.00000000000000 -1.86666379504845
1.07181987000000 1.73895990000000 103.00000000000000 -1.86756917681475
0.96446195000000 1.71774280000000 105.73850634000000 -1.86744569354721
0.96446195000000 1.70876003000000  90.57778986000000 -1.86744818619479
0.96446195000000 1.96429512000000  88.76247669000000 -1.86818854092076
1.24615516000000 1.47887231000000 103.00000000000000 -1.86627334879097
1.26168693000000 1.76184093000000 103.00000000000000 -1.86774231478182
0.98565650000000 1.68888476000000  75.28340018000000 -1.86697368783143
1.21764227000000 1.68464960000000 103.00000000000000 -1.86742511153955
0.85802687000000 1.68888476000000  74.81160679000000 -1.86683133826182
1.25910729000000 1.68888476000000 111.83794724000001 -1.86744673801854
0.97616102000000 1.68888476000000  73.17028635000000 -1.86685769691235
0.96446195000000 1.65878540000000  94.30993108000000 -1.86726592323214
1.47244320000000 1.78280543000000 103.00000000000000 -1.86792246972925
1.14389702000000 1.68888476000000 110.99925152000000 -1.86737089862174
0.84978038000000 1.68888476000000  71.46514272000000 -1.86665130841016
0.95155555000000 1.68888476000000  96.16238645999999 -1.86738312896182
1.15500283000000 1.68888476000000  74.22565509000000 -1.86709744068173
0.93436831000000 1.84860888000000 103.00000000000000 -1.86788686383807
0.96446195000000 1.87528577000000 117.01102064000000 -1.86793447029652
0.78741541000000 1.67045084000000 103.00000000000000 -1.86728481301441
1.19750964000000 1.88197009000000 103.00000000000000 -1.86808771128540
1.00243155000000 1.68888476000000  72.06204803999999 -1.86682597480387
0.96446195000000 1.84015446000000  71.33601122000000 -1.86748301052307
0.96446195000000 1.92521704000000 116.05392596000000 -1.86809697783644
0.96446195000000 1.64823108000000  85.79394038000000 -1.86713472026167
1.00834763000000 1.68888476000000 136.79048148000001 -1.86718257678854
1.28613439000000 1.68888476000000 116.43268673999999 -1.86745693465946
0.75445496000000 1.67440659000000 103.00000000000000 -1.86730464915786
0.79490875000000 1.74295811000000 103.00000000000000 -1.86755586542540
1.01217177000000 1.90202547000000 103.00000000000000 -1.86806465189557
0.75139675000000 1.68888476000000 130.10548524000001 -1.86718660931228
0.96446195000000 1.64889995000000 133.96319689000001 -1.86697787607272
0.96446195000000 1.81553778000000  76.27630762000000 -1.86756173605363
0.90327245000000 1.68888476000000  93.21789481000000 -1.86737353130195
0.96446195000000 1.44907326000000 125.70467247000001 -1.86575850060672
0.96446195000000 1.68357694000000 122.40671949999999 -1.86719615597212
0.99914076000000 1.68888476000000 111.03817666000000 -1.86730196246333
0.96446195000000 1.96693406000000 102.20408247000000 -1.86822785726542
0.96446195000000 1.75097014000000 126.69696377000000 -1.86745200098085
0.96446195000000 1.88330147000000  85.71283932999999 -1.86795286616143
0.81092505000000 1.68888476000000 122.49495374999999 -1.86721536401728
0.98072226000000 1.68888476000000 123.00426323000001 -1.86722155316227
1.07126041000000 1.68888476000000  79.04691744000000 -1.86721140424322
0.99163793000000 1.92382115000000 103.00000000000000 -1.86811890863476
0.96446195000000 1.58434724000000 111.17372503999999 -1.86678996249020
0.96979198000000 1.81382988000000 103.00000000000000 -1.86778881162411
1.22036426000000 1.68888476000000 106.94861218000000 -1.86743383719727
1.10210148000000 1.68888476000000 103.83071870000001 -1.86738319216988
0.96446195000000 1.53191823000000  70.71690409999999 -1.86582807801460
1.00005861000000 1.59769114000000 103.00000000000000 -1.86693717999594
0.96446195000000 1.68512231000000 111.00336134000000 -1.86727802345786
1.12294726000000 1.83220819000000 103.00000000000000 -1.86790324440085
1.06897018000000 1.73809517000000 103.00000000000000 -1.86756496997725
0.99308416000000 1.68888476000000  82.04180776000000 -1.86724223598992
1.11363191000000 1.68888476000000  83.18692407000000 -1.86734974473438
1.28804454000000 1.68888476000000  94.87090037999999 -1.86748490501998
0.96446195000000 1.87550132000000  84.44021171999999 -1.86791853515513
1.19656585000000 1.68888476000000 117.45753528000000 -1.86738301477328
0.96446195000000 1.80772559000000  95.45947712000000 -1.86778269668957
0.96446195000000 1.83579881000000  88.82188598000000 -1.86784270697797
0.88301665000000 1.73513150000000 103.00000000000000 -1.86752092497477
1.11018672000000 1.78251754000000 103.00000000000000 -1.86773713638888
1.41160176000000 1.69184291000000 103.00000000000000 -1.86757048538504
0.84541152000000 1.67663767000000 103.00000000000000 -1.86730386864019
0.96446195000000 1.77656005000000  99.54433475000000 -1.86768096534490
1.11616959000000 1.68888476000000  95.45653855000000 -1.86741962599399
1.26560411000000 1.68888476000000 105.84260583000000 -1.86746524386251
0.74068272000000 1.59962306000000 103.00000000000000 -1.86696162456894
1.07119347000000 1.68888476000000 103.84416908000000 -1.86737128635195
0.90832772000000 1.74827032000000 103.00000000000000 -1.86756662318294
0.96446195000000 1.57553055000000 145.13078965000000 -1.86641229796817
0.96446195000000 1.66779931000000  80.09511065000000 -1.86705636039289
0.97655834000000 1.70238104000000 103.00000000000000 -1.86740630665952
1.08467740000000 1.68888476000000 134.40876646000001 -1.86724918090692
0.71200863000000 1.59726291000000 103.00000000000000 -1.86695058995826
0.96446195000000 1.98523692000000  94.98372716999999 -1.86826539719709
0.96446195000000 1.90380906000000 120.82655036000000 -1.86802031575814
1.30085042000000 1.68888476000000 107.34764212000000 -1.86748577680908
0.96446195000000 1.53907888000000 138.97079833999999 -1.86625441141700
0.88346431000000 1.68888476000000 104.93891284999999 -1.86733605290908
0.96446195000000 1.76228692000000 107.78603218000001 -1.86759526204492
0.96446195000000 1.84409723000000 110.10989770000000 -1.86785641722747
0.89698607000000 1.68888476000000  63.23285936000000 -1.86627250349011
1.10642725000000 1.68888476000000  93.96683367000000 -1.86741917312304
1.06508114000000 1.78967098000000 103.00000000000000 -1.86774208702889
0.96446195000000 1.53667837000000 125.85125085999999 -1.86640459610828
0.96446195000000 1.77721965000000 114.45121313999999 -1.86761040226054
0.96446195000000 1.52314447000000  96.22526525000001 -1.86654024801499
1.10876062000000 1.68888476000000  67.62726827000000 -1.86668986666257
0.90104912000000 1.87850592000000 103.00000000000000 -1.86796882049771
0.96446195000000 1.57887797000000  90.91720304000000 -1.86686402633347
1.10962220000000 1.68888476000000  93.26865167000000 -1.86742062176882
1.46885765000000 1.66815306000000 103.00000000000000 -1.86750863366353
1.05355857000000 1.68888476000000 129.65675612000001 -1.86723571163213
1.03620008000000 1.68888476000000  91.40826281000000 -1.86739823558457
0.95025529000000 1.68888476000000 136.63541985000001 -1.86714840967784
1.25857837000000 1.68888476000000 105.59793732000000 -1.86746126665173
1.07581452000000 1.68888476000000 115.16657255000000 -1.86730991817990
0.90653562000000 1.68888476000000  85.23399102000000 -1.86726880996071
0.82424072000000 1.83341889000000 103.00000000000000 -1.86783804969434
0.69264051000000 1.93752806000000 103.00000000000000 -1.86818008706166
1.05468918000000 1.68888476000000  84.56391326000001 -1.86734029136824
0.77910691000000 2.01406734000000 103.00000000000000 -1.86834017254284
0.91527669000000 2.05700789000000 103.00000000000000 -1.86844442308984
1.02632760000000 1.92991572000000 103.00000000000000 -1.86814865632198
0.95033699000000 1.84365509000000 103.00000000000000 -1.86787535966380
1.06759687000000 1.68888476000000 106.89301544999999 -1.86735274018849
0.96446195000000 1.84583643000000 102.35746992000000 -1.86788683826956
0.96446195000000 1.71922132000000 115.51099791000000 -1.86738600818092
1.09417273000000 1.63504518000000 103.00000000000000 -1.86714603138330
1.33814712000000 1.68888476000000  84.69093646000000 -1.86747051495786
0.96446195000000 1.58571683000000  95.95690419000000 -1.86691744614893
0.89451941000000 1.99861005000000 103.00000000000000 -1.86829514320470
1.01858333000000 1.68888476000000 111.70280572999999 -1.86730391155561
1.05213398000000 1.69766461000000 103.00000000000000 -1.86740517954604
0.96446195000000 1.55581521000000 118.05341857000001 -1.86657487155446
0.96446195000000 1.45046350000000 113.82803515000001 -1.86584440980130
0.96446195000000 1.62171354000000  69.84907088999999 -1.86630356408773
0.83971918000000 1.68888476000000 107.93176679000000 -1.86731769606342
0.96446195000000 1.82814406000000  91.90658753000000 -1.86783589559400
1.08631244000000 1.75749660000000 103.00000000000000 -1.86764108186776
0.96446195000000 1.68915089000000  97.67638750000000 -1.86738147924939
0.99285205000000 1.68888476000000 107.88389634000001 -1.86732225718515
0.93302760000000 1.68888476000000 104.19069785000001 -1.86734101599120
0.90941147000000 1.68888476000000  97.08813893000000 -1.86737745506082
0.89673879000000 1.82481889000000 103.00000000000000 -1.86781085905488
1.27557638000000 1.66692373000000 103.00000000000000 -1.86738331438482
0.96446195000000 1.73504416000000 112.30114430000000 -1.86746810795182
0.96446195000000 1.70337148000000  91.83038838000000 -1.86743515434716
1.02310789000000 1.68888476000000  84.27072776000000 -1.86731637961384
0.96446195000000 1.78279902000000  88.85462036000000 -1.86768466273941
1.24115296000000 1.75079548000000 103.00000000000000 -1.86769240516992
0.96446195000000 1.48139639000000 133.06523435000000 -1.86592043482631
0.84387899000000 1.68888476000000  88.58263153999999 -1.86730690729712
1.19086353000000 1.47054190000000 103.00000000000000 -1.86617398533815
1.01998570000000 1.80494165000000 103.00000000000000 -1.86777528423920
0.96446195000000 1.70909926000000  66.48721528000000 -1.86658689522881
0.96446195000000 1.72955201000000  89.30447940000001 -1.86751293479347
0.96446195000000 1.79214483000000  88.95135021999999 -1.86771426843666
1.05025317000000 1.68888476000000 129.71048633000001 -1.86723316466146
0.85428147000000 1.69313713000000 103.00000000000000 -1.86736828048879
1.05183713000000 1.68888476000000 128.55996497999999 -1.86723773199424
1.36959764000000 1.68888476000000 117.16370761000000 -1.86752269624822
1.25323038000000 1.76308860000000 103.00000000000000 -1.86774204731933
1.10623984000000 1.74425893000000 103.00000000000000 -1.86760219720225
0.81212687000000 1.72333609000000 103.00000000000000 -1.86748482537257
1.12812877000000 1.79232834000000 103.00000000000000 -1.86777793488932
0.97262954000000 1.68888476000000  82.51555301000000 -1.86724088613653
1.11443449000000 1.68888476000000 142.55700511000001 -1.86725616546380
0.96446195000000 1.93539607000000 106.37188797000000 -1.86813968081287
0.78082601000000 1.68888476000000  85.21091603000001 -1.86719462077951
0.96446195000000 1.54260551000000 141.85860794000001 -1.86622204279058
1.11604825000000 1.63555700000000 103.00000000000000 -1.86715666162297
1.05583113000000 1.68888476000000 135.40226340999999 -1.86722260345095
0.96446195000000 1.89970342000000 120.45549549000000 -1.86800733071800
0.95716289000000 1.68888476000000 122.10863114999999 -1.86721852132564
0.74665586000000 1.68888476000000  84.43759384000001 -1.86715071078163
0.96446195000000 1.67211211000000 120.49752607000001 -1.86715714233753
0.84037473000000 1.81962997000000 103.00000000000000 -1.86779540293492
0.97929929000000 2.10052189000000 103.00000000000000 -1.86856231168906
0.91454990000000 1.61428226000000 103.00000000000000 -1.86702016236268
1.15747150000000 1.63982932000000 103.00000000000000 -1.86719502366304
1.24502184000000 1.68888476000000 114.65704993999999 -1.86742869733712
0.96446195000000 1.81901346000000 119.74512210000000 -1.86773346209281
0.83557492000000 1.43670057000000 103.00000000000000 -1.86582718799275
0.96446195000000 1.77397734000000 115.62879986000000 -1.86759233292048
0.96446195000000 1.90526423000000  88.55669889000001 -1.86803337550134
1.10668410000000 1.68888476000000  89.56651020000000 -1.86741372482390
1.27074519000000 1.66248212000000 103.00000000000000 -1.86736095004903
0.96446195000000 1.63361534000000 129.76092581000000 -1.86692489652876
0.91901005000000 1.72716987000000 103.00000000000000 -1.86749311213816
1.06976553000000 1.68888476000000  96.10224447000000 -1.86740523764763
0.96446195000000 1.55266882000000 129.84877700999999 -1.86647185732693
0.79209693000000 1.69829825000000 103.00000000000000 -1.86739476154366
0.87327577000000 1.50607963000000 103.00000000000000 -1.86638178887495
0.96446195000000 1.71945240000000  84.99531466000001 -1.86741878681892
0.93338078000000 1.68888476000000  87.01441628000001 -1.86731916769952
0.79534612000000 1.68888476000000 101.09205818000000 -1.86736662471174
1.22584748000000 1.68888476000000 126.67200185999999 -1.86738960750540
0.86391990000000 1.68888476000000  90.43649549000000 -1.86734180791154
0.96446195000000 1.81686916000000 108.26920419000000 -1.86777643233359
0.80272138000000 1.70355790000000 103.00000000000000 -1.86741340039862
0.96446195000000 1.80131760000000 107.81677413000000 -1.86772766996319
1.40370846000000 1.67293627000000 103.00000000000000 -1.86748898453482
1.35337202000000 1.68888476000000  85.61275374000000 -1.86748249219863
0.96446195000000 1.75948066000000  79.78242676000001 -1.86744872488134
0.78679170000000 1.98862165000000 103.00000000000000 -1.86827315757591
1.00599790000000 2.08943051000000 103.00000000000000 -1.86854668613137
0.96446195000000 1.68853397000000 107.72342388000000 -1.86731649577405
0.96446195000000 1.47931079000000 124.75004602000000 -1.86601099922279
1.23246644000000 1.73416338000000 103.00000000000000 -1.86762743264819
0.80654463000000 1.68888476000000  98.45750980000000 -1.86737253934075
1.22501083000000 1.68888476000000 106.70943180000000 -1.86743743410943
1.12579858000000 1.68888476000000 130.17016458000001 -1.86729333849041
0.96446195000000 1.98760759000000 105.35375874000000 -1.86828389812194
0.80697444000000 1.68888476000000  76.56761849999999 -1.86687627433298
1.17799649000000 1.67324051000000 103.00000000000000 -1.86735567474580
0.90363489000000 1.68888476000000  92.80149991000000 -1.86737169543369
0.96446195000000 1.70405028000000 129.14285103000000 -1.86725111595979
1.11224783000000 1.68888476000000  68.84117008000000 -1.86676354060239
0.79781698000000 1.68888476000000  77.40910626000000 -1.86690871333735
1.02774095000000 1.68888476000000 126.28405735000000 -1.86722986855170
0.96446195000000 1.92605300000000  76.34206801000001 -1.86794892890146
0.96446195000000 1.79339116000000  68.77387499000000 -1.86714311762967
1.06630963000000 1.99329679000000 103.00000000000000 -1.86833569432997
1.35031298000000 1.66463315000000 103.00000000000000 -1.86742014760057
0.93113910000000 1.65264600000000 103.00000000000000 -1.86719817589676
1.18161620000000 1.66135740000000 103.00000000000000 -1.86730554625171
0.84367807000000 1.68888476000000  69.37104248000000 -1.86653641894122
0.82089829000000 1.90845701000000 103.00000000000000 -1.86805251564749
0.89361370000000 1.68888476000000  92.94090421999999 -1.86737044381516
1.14318105000000 1.68888476000000  66.60256020999999 -1.86666579307314
1.18328573000000 1.72295801000000 103.00000000000000 -1.86755936538850
0.96446195000000 1.80212410000000 123.59488253000001 -1.86765767120073
0.79046451000000 1.68888476000000  98.63544003000000 -1.86737223393550
1.08799723000000 1.68888476000000 104.73086106000000 -1.86737290400208
0.96446195000000 1.69102895000000 100.37362833000000 -1.86737627993307
0.96446195000000 1.59005736000000  85.96649422000000 -1.86683964737199
0.96446195000000 1.96618249000000  96.91808329000000 -1.86822102815017
0.96446195000000 1.81431134000000 121.51362238999999 -1.86770980925508
1.23991653000000 1.45152596000000 103.00000000000000 -1.86605129122938
1.12574705000000 1.95719618000000 103.00000000000000 -1.86826544445682
0.96446195000000 1.84566596000000 113.72842244000000 -1.86784782221275
1.09493162000000 1.69838729000000 103.00000000000000 -1.86742299508182
1.14671276000000 1.68888476000000  73.50384249000000 -1.86705453303023
1.16583222000000 1.68888476000000 103.90268790000000 -1.86741241388791
1.13185607000000 1.68888476000000  81.29015801000000 -1.86732205775741
0.84390889000000 1.80701218000000 103.00000000000000 -1.86775684830332
0.96446195000000 1.72323207000000  74.54744024000000 -1.86708928611233
1.03500792000000 1.68888476000000 113.67371009999999 -1.86729801572039
0.96446195000000 1.88474423000000 111.03672672000000 -1.86798103512137
0.85455870000000 1.68888476000000 102.35065939000000 -1.86735572614532
0.96446195000000 1.59484513000000  82.67351841999999 -1.86676454436270
1.28264774000000 1.53756959000000 103.00000000000000 -1.86670697944510
0.94538759000000 1.68888476000000  69.20168653000000 -1.86661225458988
1.31840478000000 1.52328336000000 103.00000000000000 -1.86663966971071
1.05213757000000 1.68888476000000 135.14712109000001 -1.86722025668769
1.22042088000000 1.65013977000000 103.00000000000000 -1.86727589872112
0.96446195000000 1.83741225000000 111.80173763000001 -1.86782829947481
1.31438715000000 1.53085109000000 103.00000000000000 -1.86668624105391
1.03703048000000 1.68888476000000  75.51378509000000 -1.86703641532961
0.83693024000000 1.68888476000000 111.82067653000000 -1.86728741519437
0.96446195000000 1.70909283000000 114.73353984000001 -1.86735057268299
1.19496072000000 1.68888476000000  86.23874728000000 -1.86742681038379
0.77920873000000 1.71407888000000 103.00000000000000 -1.86745557011852
0.96446195000000 2.05018291000000  90.61304355999999 -1.86840565229193
0.96446195000000 1.83161783000000 119.69149401999999 -1.86777783256866
0.96446195000000 1.53386676000000 114.12744839000000 -1.86646366135676
0.96446195000000 1.58372458000000 127.23482552999999 -1.86667686032206
0.94423529000000 1.68888476000000  90.23392549000000 -1.86736462078363
0.84199212000000 1.68888476000000  82.96088741000000 -1.86716362462016
1.23718921000000 1.68888476000000 100.93853401000000 -1.86745734751219
0.83637350000000 1.89492156000000 103.00000000000000 -1.86801348424558
0.67427139000000 1.76969838000000 103.00000000000000 -1.86767975480700
1.01288721000000 1.68888476000000  63.17342845000000 -1.86636526218217
0.92639136000000 1.68888476000000  86.63080386999999 -1.86730890611454
0.96446195000000 1.55131726000000  94.32493950999999 -1.86672173135469
0.96446195000000 1.69905492000000 137.23284891000000 -1.86719929390563
1.08758838000000 1.62015116000000 103.00000000000000 -1.86707133482662
0.96446195000000 1.53508306000000 132.09761087999999 -1.86633333903353
0.96446195000000 1.82905814000000  87.00174516000000 -1.86780914697840
0.96552386000000 1.81418031000000 103.00000000000000 -1.86778888945958
0.96446195000000 1.55310318000000 121.76841684000000 -1.86653502085312
0.93482421000000 1.76334593000000 103.00000000000000 -1.86761970690509
0.96446195000000 1.66900781000000  72.88098631000000 -1.86672431117711
0.96446195000000 1.52604205000000 101.42446825000000 -1.86652630669710
1.23775051000000 1.54325402000000 103.00000000000000 -1.86671324853080
0.96446195000000 1.84116974000000  84.69665540000000 -1.86782123135958
0.96446195000000 1.84128745000000 114.54467133000000 -1.86783026689920
1.29322280000000 1.68888476000000 111.20261015000000 -1.86747317368997
0.97961951000000 1.84065488000000 103.00000000000000 -1.86787373430991
1.19061695000000 1.68888476000000 105.57035833000000 -1.86742016698702
1.10718892000000 1.68888476000000  84.44207053000000 -1.86736707852924
1.43532186000000 1.68888476000000 117.33276531000000 -1.86757302281956
1.10318967000000 1.62440555000000 103.00000000000000 -1.86709779178659
0.96446195000000 1.82329105000000  91.68290257000000 -1.86782111604089
1.22463627000000 1.68888476000000  96.14989531000001 -1.86745741122240
0.96446195000000 1.67137754000000 102.46500521000000 -1.86728379210706
0.93579461000000 1.73800135000000 103.00000000000000 -1.86753281279118
0.96446195000000 1.65593531000000 124.66669764000000 -1.86705982942283
0.87526068000000 1.91759560000000 103.00000000000000 -1.86807633195929
0.99059429000000 1.68888476000000  84.31198879000000 -1.86729756765033
1.12311785000000 1.69916042000000 103.00000000000000 -1.86743768068823
0.96446195000000 1.80978098000000  83.17398869000000 -1.86770282436669
1.11364398000000 1.91281494000000 103.00000000000000 -1.86813751907528
1.01480848000000 1.68888476000000 139.70066466000000 -1.86717753847813
1.07400071000000 1.91590042000000 103.00000000000000 -1.86812889801195
0.97836319000000 1.68888476000000  81.73234927999999 -1.86722222154833
0.96446195000000 1.81460882000000 123.80771860999999 -1.86770230874515
0.85859636000000 1.73950169000000 103.00000000000000 -1.86753716210978
0.96446195000000 1.82128550000000 120.52165581000000 -1.86773844369429
1.15804522000000 1.68888476000000 130.59806277999999 -1.86732204311591
1.09971838000000 1.68888476000000 106.84932748999999 -1.86736695653303
0.81395861000000 1.49251145000000 103.00000000000000 -1.86629081938236
1.12818834000000 1.68888476000000 110.34425204999999 -1.86736451586364
1.14694018000000 1.68888476000000 117.63321704000001 -1.86734487345177
1.03493339000000 2.17699541000000 103.00000000000000 -1.86873675304764
1.09803529000000 1.68888476000000  79.86590793000001 -1.86725962839671
1.41370752000000 1.68888476000000 101.91999210000000 -1.86755900723472
0.83550419000000 1.68888476000000 105.78786158000000 -1.86733461253380
1.22073069000000 1.68888476000000 113.85529393000000 -1.86741266880585
0.96124704000000 1.86812440000000 103.00000000000000 -1.86795038474577
0.96446195000000 1.44375189000000  89.43526196000001 -1.86585867158874
0.96446195000000 1.59322078000000  85.51935980000000 -1.86684572081174
0.96446195000000 1.67760620000000 116.44500617999999 -1.86720726908300
1.15900629000000 1.68888476000000 112.03482246000000 -1.86737601345408
0.95457881000000 1.94537734000000 103.00000000000000 -1.86816682035771
0.96446195000000 1.74102432000000 120.40597993999999 -1.86744265020991
1.25635136000000 1.62580069000000 103.00000000000000 -1.86718197314906
0.86539253000000 1.80459724000000 103.00000000000000 -1.86774846200672
0.91380283000000 1.50440340000000 103.00000000000000 -1.86636487398152
1.24198709000000 1.61086543000000 103.00000000000000 -1.86709855288905
1.13695796000000 1.68888476000000 117.70661611000000 -1.86733737856684
0.96446195000000 1.64362173000000  83.87836578000000 -1.86706434639552
1.07526710000000 1.68888476000000 138.74848410000001 -1.86723076944895
1.13470737000000 1.68888476000000  95.57027194000000 -1.86742512083822
1.32209806000000 1.66793391000000 103.00000000000000 -1.86741652114063
0.89687567000000 1.69043297000000 103.00000000000000 -1.86735526387452
0.95480681000000 1.68888476000000 135.64658416000000 -1.86715468185628
1.12412423000000 1.68888476000000 100.30862614999999 -1.86740725835898
1.21675198000000 1.66688342000000 103.00000000000000 -1.86734874295757
0.96446195000000 1.79506507000000 111.67594669000000 -1.86768757810262
1.00109608000000 1.82515415000000 103.00000000000000 -1.86783273373067
0.81812247000000 1.68888476000000  78.27755864000000 -1.86696329972358
1.16215569000000 1.88220093000000 103.00000000000000 -1.86807179664402
0.96446195000000 1.62043024000000 120.40257054999999 -1.86691457507254
0.92039554000000 1.41930894000000 103.00000000000000 -1.86565581443392
0.96446195000000 1.68574450000000 104.37583481000000 -1.86732950301450
0.96446195000000 1.74517606000000  80.48690028999999 -1.86741222018350
0.96446195000000 1.56063088000000  76.89319356000000 -1.86629357594632
0.96446195000000 1.80020396000000 117.30565867000000 -1.86767763616092
0.75010381000000 1.68888476000000 104.92037381000000 -1.86735424723292
0.96446195000000 1.69267806000000  84.97073003000000 -1.86731195504660
0.90211790000000 2.00816303000000 103.00000000000000 -1.86832087190248
0.93683790000000 1.56983116000000 103.00000000000000 -1.86678260197687
0.96446195000000 1.70734730000000 127.61326337000000 -1.86727151622927
0.96446195000000 1.55195111000000 106.13111877000000 -1.86664581782759
1.09048478000000 1.68888476000000  75.55240003000000 -1.86709230331496
0.90651856000000 1.52554842000000 103.00000000000000 -1.86651162680471
0.95131379000000 1.59610653000000 103.00000000000000 -1.86692641306104
0.96446195000000 1.76600175000000  90.75933577000001 -1.86764391426220
0.97354681000000 1.68888476000000 112.74850528000000 -1.86728320746215
1.02175520000000 1.75372302000000 103.00000000000000 -1.86760500216019
0.96446195000000 1.76883576000000 103.94411146000000 -1.86763818423890
0.83299217000000 1.71436778000000 103.00000000000000 -1.86745005197190
0.96446195000000 1.61633018000000  86.74757175000001 -1.86699944168083
0.96446195000000 1.68904528000000 127.07581840000000 -1.86719577867404
0.86830020000000 2.09453381000000 103.00000000000000 -1.86852473549061
1.01052957000000 1.66573117000000 103.00000000000000 -1.86726247406045
0.97320610000000 1.68888476000000 112.79606183999999 -1.86728279144256
1.05304622000000 1.68888476000000 116.18097935999999 -1.86729207389635
1.04893605000000 1.63337531000000 103.00000000000000 -1.86712444526393
1.31464132000000 1.68888476000000 107.31079312000000 -1.86749515276335
1.00132935000000 1.68888476000000 129.32976651000001 -1.86720299495755
0.79559854000000 1.68888476000000  93.69872460000001 -1.86735625383494
1.07554794000000 1.68888476000000 108.08382501000000 -1.86734927410976
0.70584622000000 1.68888476000000 128.41054029000000 -1.86722534813362
0.78727020000000 1.68888476000000  75.27930204000000 -1.86680023559779
0.96446195000000 1.66415801000000 112.92023195000000 -1.86717307639435
0.96446195000000 1.75796138000000 111.56029010000000 -1.86755765234966
1.00418267000000 1.83641904000000 103.00000000000000 -1.86786835707096
1.38793888000000 1.68888476000000 114.40689195000000 -1.86753913479129
0.96446195000000 1.67403057000000  65.09147020000000 -1.86634109695558
0.92269316000000 1.76622176000000 103.00000000000000 -1.86762804716932
0.96446195000000 1.77536309000000  87.20709558000000 -1.86764619392386
0.73793827000000 1.49454263000000 103.00000000000000 -1.86631132028026
0.96446195000000 1.79741259000000  80.22969215000001 -1.86760269134936
1.19633766000000 1.42391849000000 103.00000000000000 -1.86578253042444
0.89255383000000 1.53838775000000 103.00000000000000 -1.86659674260250
0.96446195000000 1.67555604000000 100.87645427000000 -1.86731152564994
0.96446195000000 1.74773622000000 102.89769501000001 -1.86757118783464
0.96446195000000 1.66598753000000 108.91407896000000 -1.86721170643057
0.96562428000000 1.68888476000000 100.23154051000000 -1.86736878517934
1.03451058000000 1.60380827000000 103.00000000000000 -1.86697435002441
0.96446195000000 1.75072609000000  71.27584007999999 -1.86706311374678
0.96446195000000 1.60949223000000 104.37079153000001 -1.86698359028696
0.91294101000000 1.68888476000000 107.13455655000000 -1.86731841435210
0.70178476000000 1.71829738000000 103.00000000000000 -1.86748528814155
0.90231259000000 1.68888476000000 116.28198619000000 -1.86724816817605
0.96446195000000 1.73027836000000 101.86300788000000 -1.86751489663061
1.15003807000000 1.68888476000000 107.87371174000000 -1.86738823184965
0.96446195000000 2.07070578000000 107.32090291999999 -1.86849890318479
0.96446195000000 1.71161709000000 127.48668089000000 -1.86728993449844
0.91366944000000 1.68888476000000 113.82589684000000 -1.86726666600282
1.06721379000000 1.78863953000000 103.00000000000000 -1.86773951739906
1.10158033000000 1.68888476000000  77.84529523000000 -1.86719577426538
0.96446195000000 1.82522280000000 102.91448726000000 -1.86782303174562
1.18375683000000 1.68888476000000 126.09160145000000 -1.86735192289598
1.02733648000000 1.68888476000000 110.80980409000000 -1.86731291943079
0.96446195000000 1.91698100000000 105.97098020000000 -1.86808760025724
1.13290516000000 1.68888476000000 135.61566350000001 -1.86729121463623
1.26741875000000 1.62220165000000 103.00000000000000 -1.86717116860541
0.95385636000000 1.96473422000000 103.00000000000000 -1.86821900811697
0.96446195000000 1.63412477000000 132.27832920000000 -1.86691309295361
0.71479938000000 1.71699067000000 103.00000000000000 -1.86747729303238
0.95452387000000 1.69343257000000 103.00000000000000 -1.86736871287405
1.16062320000000 1.68888476000000 121.27069458000000 -1.86734302892944
1.11721086000000 1.68888476000000  72.66925506000000 -1.86698114246815
0.96446195000000 1.54881686000000 138.48408104000001 -1.86633512729088
1.11474522000000 1.68888476000000 118.82151225000000 -1.86731716042573
0.96446195000000 1.68621320000000  87.17937193000000 -1.86732555998606
1.01931029000000 1.64377182000000 103.00000000000000 -1.86716653034568
1.12277160000000 1.68888476000000  69.36257864000000 -1.86680486394800
0.96446195000000 1.68977182000000  77.09021777000000 -1.86704096107565
1.30179044000000 1.68888476000000  93.41824875000000 -1.86748936213587
0.96446195000000 1.69870891000000 123.35124925000000 -1.86725568562395
0.96446195000000 1.92128539000000 105.43523801000001 -1.86810062155416
1.10903518000000 1.68888476000000  78.50616090000000 -1.86722551841513
0.96446195000000 1.70395953000000 114.23758438999999 -1.86733309067699
0.96446195000000 1.74796859000000  84.78920755999999 -1.86752036754160
0.97491916000000 1.68888476000000 125.73712345000000 -1.86720554474653
1.02247540000000 1.68888476000000  60.39605778000000 -1.86626036351117
0.96446195000000 1.84520140000000  80.13156785000000 -1.86776378862658
0.84422668000000 1.68888476000000 103.03048642000000 -1.86735247271281
1.01095992000000 1.68888476000000 102.35861448000000 -1.86736309602679
0.97048750000000 1.52092027000000 103.00000000000000 -1.86647693991483
1.11054181000000 1.77841878000000 103.00000000000000 -1.86772347626152
1.10552863000000 1.68888476000000 105.95848279000001 -1.86737417827931
1.08779699000000 1.66573730000000 103.00000000000000 -1.86728371062429
0.74522380000000 1.86472214000000 103.00000000000000 -1.86794705821364
0.96446195000000 1.67121298000000  72.30697843000000 -1.86670546558616
0.96446195000000 1.69280758000000  92.47519653000001 -1.86739811322548
0.83895340000000 1.95842614000000 103.00000000000000 -1.86818669774050
1.21755861000000 1.68888476000000 108.93698567000000 -1.86742603788309
0.96446195000000 1.84783178000000 109.59199921000000 -1.86787018808673
0.96446195000000 1.72556489000000  96.42881084000000 -1.86751850945495
0.96446195000000 1.94357385000000 125.02157590000000 -1.86814753522685
0.96446195000000 1.96713668000000 119.74374894000000 -1.86822603533381
1.00419311000000 1.61198491000000 103.00000000000000 -1.86701129284370
0.84781629000000 1.68888476000000 119.80050747000000 -1.86722634492253
1.34286253000000 1.54806251000000 103.00000000000000 -1.86681489134264
1.06589150000000 1.68888476000000 108.62612485000000 -1.86734193753705
1.31811315000000 1.68888476000000  82.83447735999999 -1.86744598003713
0.75161873000000 1.68888476000000  78.41514863000000 -1.86692265344777
1.44504725000000 1.59735260000000 103.00000000000000 -1.86716476579659
0.96446195000000 1.94599513000000  98.37118294000000 -1.86817016760995
1.16604673000000 1.89424411000000 103.00000000000000 -1.86810843000865
1.00031668000000 1.57526281000000 103.00000000000000 -1.86681476321746
0.96446195000000 1.58380540000000  81.35878952000000 -1.86664782323874
1.09916429000000 1.64748449000000 103.00000000000000 -1.86720603615208
0.99450899000000 1.68888476000000  89.48484247000000 -1.86737490782730
0.99496317000000 1.80913944000000 103.00000000000000 -1.86778080638135
0.81526699000000 1.95762233000000 103.00000000000000 -1.86818658528045
0.96491781000000 1.67135836000000 103.00000000000000 -1.86727998185722
0.81472831000000 1.68888476000000  64.72058033000000 -1.86629068239802
0.77345432000000 1.68888476000000  98.17058879000000 -1.86737180931516
0.85382286000000 1.68888476000000  97.51211800000000 -1.86737437023771
1.33766955000000 1.68888476000000  85.85878176000000 -1.86747817013168
0.96446195000000 1.59692753000000  97.64042743000000 -1.86697017592780
0.96446195000000 2.06069161000000  90.29763153000000 -1.86842802329681
1.10595161000000 2.00929630000000 103.00000000000000 -1.86839342400538
0.83971957000000 1.44071601000000 103.00000000000000 -1.86586291046262
0.96446195000000 1.55746830000000 144.52159839999999 -1.86628241675407
1.01982148000000 1.68888476000000  82.38509535000000 -1.86727084944255
0.96446195000000 1.73524695000000 116.75474981000001 -1.86744102964872
0.96446195000000 1.61518859000000  98.95108370000000 -1.86705450660440
0.96446195000000 1.89606064000000  90.04393448000000 -1.86801661179243
1.06346344000000 1.68888476000000 113.69646990000000 -1.86731137009212
1.17836859000000 1.65470074000000 103.00000000000000 -1.86727403005204
0.96446195000000 1.72543836000000 143.73525028000000 -1.86728989263440
1.17752246000000 1.68888476000000 127.10124587000000 -1.86734475633637
0.96446195000000 1.55369855000000 110.30947501000000 -1.86661832998425
0.96446195000000 1.81031798000000  67.77054772000000 -1.86717289224896
0.80470600000000 1.68888476000000 117.99662644000000 -1.86724791003530
1.03256918000000 1.68888476000000 128.78589657000001 -1.86722389676891
1.10674335000000 1.68888476000000  94.17421697000000 -1.86741902640335
0.75579918000000 1.68888476000000 110.99830178000001 -1.86731289473721
1.00259815000000 1.58640914000000 103.00000000000000 -1.86687694848581
0.93123743000000 1.68888476000000 147.91789761999999 -1.86707613211183
1.15687354000000 1.65110123000000 103.00000000000000 -1.86724707279313
0.96446195000000 1.54601075000000 109.65656342000000 -1.86657633676373
0.88372967000000 1.68888476000000  89.46816640000000 -1.86733615768151
1.14948000000000 1.68888476000000  95.55977799999999 -1.86742996074088
1.03092308000000 1.68888476000000  83.51303602999999 -1.86730530917112
1.37121143000000 1.62685684000000 103.00000000000000 -1.86726196691006
0.88672000000000 2.03611008000000 103.00000000000000 -1.86838876551349
0.94537973000000 1.52806813000000 103.00000000000000 -1.86652523290581
1.40324561000000 1.68888476000000  93.44558567000000 -1.86753538053119
0.96446195000000 1.80118802000000  71.24624301000000 -1.86730423106326
1.13298904000000 1.68888476000000  78.76485596000001 -1.86725402802949
0.96446195000000 1.72953081000000  76.66885764000000 -1.86721259154433
0.96446195000000 1.61596209000000  68.53193840000000 -1.86620904615063
0.96446195000000 1.77709363000000  82.88183515000000 -1.86758801674409
1.50086580000000 1.68888476000000 109.40853140999999 -1.86761687143940
0.70623880000000 1.68888476000000 100.52473145000000 -1.86737354429886
0.89748897000000 1.67509919000000 103.00000000000000 -1.86729389663333
0.83013656000000 1.98318537000000 103.00000000000000 -1.86825245109935
1.05641791000000 1.84601870000000 103.00000000000000 -1.86791687943946
0.96446195000000 1.86730460000000 111.02650260999999 -1.86792668998964
1.06614104000000 1.68410083000000 103.00000000000000 -1.86735445184991
1.17708510000000 1.68888476000000 110.49106383000000 -1.86739403221691
1.01523126000000 1.68888476000000 127.72846470000000 -1.86721694203845
0.80919746000000 1.68888476000000  66.05285777000000 -1.86634989606569
0.83303809000000 1.62733090000000 103.00000000000000 -1.86709049356375
1.06357118000000 1.52023609000000 103.00000000000000 -1.86648387129026
0.86450002000000 1.68888476000000  62.99807939000000 -1.86624115311793
1.11608482000000 1.72649779000000 103.00000000000000 -1.86754091386160
1.02376223000000 1.68888476000000 125.24376942000001 -1.86723171774292
0.96446195000000 1.54846536000000 116.18165024000000 -1.86654216938712
0.96446195000000 1.83381532000000  92.31216464000001 -1.86785344978523
0.96446195000000 1.53426239000000  87.29927649000000 -1.86652736103974
1.29206393000000 1.68888476000000 105.50642116000000 -1.86748280999871
1.05626567000000 1.68888476000000  81.32877607000000 -1.86726918968554
0.97672991000000 1.68888476000000 107.58637610000000 -1.86732100541508
0.96446195000000 1.53040089000000  84.20115751000000 -1.86640819123932
1.02424265000000 1.63888768000000 103.00000000000000 -1.86714488991277
1.05897994000000 1.68888476000000 124.36787443999999 -1.86725696211715
1.01822347000000 1.68888476000000 120.93547700000001 -1.86724886179127
0.96446195000000 1.62091769000000  97.22890190000000 -1.86709105219427
1.26817000000000 1.71216113000000 103.00000000000000 -1.86756433236246
0.95759554000000 1.68888476000000 128.92749273999999 -1.86718394271338
1.25123901000000 1.68888476000000 106.94979881000000 -1.86745359700285
1.06094041000000 1.68888476000000  93.48836061999999 -1.86740728286395
0.90957544000000 1.68888476000000  88.65207494000001 -1.86733456184822
0.95885000000000 1.68888476000000  78.62352204000000 -1.86709625242122
1.04315346000000 1.79547360000000 103.00000000000000 -1.86775281723953
1.00320415000000 1.82984866000000 103.00000000000000 -1.86784789409705
0.96446195000000 1.56786999000000 137.58819901000001 -1.86648132291623
0.99456759000000 1.68888476000000 132.72623872000000 -1.86718700332267
1.26516957000000 1.68888476000000  88.37600556000000 -1.86746402791596
0.89755001000000 1.66208421000000 103.00000000000000 -1.86723969914976
0.98695933000000 1.68888476000000 115.01461931999999 -1.86727142012182
0.96446195000000 1.61340374000000 146.29762199000001 -1.86666816646562
0.96446195000000 1.97237450000000 119.25969046000000 -1.86824232003733
0.83016281000000 1.68888476000000  67.40098370000000 -1.86642657392690
0.81794910000000 1.71974667000000 103.00000000000000 -1.86747123045768
1.04733088000000 1.68888476000000 131.55552458000000 -1.86722584589609
1.01708933000000 1.68888476000000  92.36711181000000 -1.86739545988712
0.96446195000000 1.69926107000000  93.88017300000000 -1.86742526234275
0.87618213000000 1.53000888000000 103.00000000000000 -1.86654476184958
1.07996540000000 1.63340397000000 103.00000000000000 -1.86713343149836
1.15827149000000 1.49440883000000 103.00000000000000 -1.86633745369807
0.96446195000000 1.85167885000000  91.68602478000000 -1.86790186385497
0.96446195000000 1.81254528000000  92.58254789999999 -1.86779268265934
1.32803900000000 1.68888476000000 120.54685583000000 -1.86748587162924
1.17882247000000 1.68888476000000 102.88493085000000 -1.86742244233380
1.03422582000000 1.68888476000000  81.71196836999999 -1.86726331422619
0.99923865000000 1.89980568000000 103.00000000000000 -1.86805368574653
0.93045909000000 1.58763886000000 103.00000000000000 -1.86688188254652
0.96446195000000 1.62847345000000 107.19008640000000 -1.86705307598902
0.96446195000000 1.60882531000000  60.51910141000000 -1.86589526395665
1.03450953000000 1.56365526000000 103.00000000000000 -1.86675231582933
1.10509041000000 1.68104555000000 103.00000000000000 -1.86735577179047
1.48791785000000 1.68888476000000 111.27791003999999 -1.86760955981299
0.83975094000000 1.51421255000000 103.00000000000000 -1.86644346286744
0.96446195000000 1.61914578000000  75.54423324000000 -1.86658492178969
0.95046641000000 1.71563524000000 103.00000000000000 -1.86745330262738
0.96446195000000 1.77607592000000 114.76522495000000 -1.86760459280947
0.90459393000000 1.68888476000000  75.46597807000001 -1.86690478261437
0.90660057000000 1.68888476000000 100.88694331000001 -1.86736214993164
1.02826379000000 1.73705279000000 103.00000000000000 -1.86754764356510
1.21375089000000 1.54315788000000 103.00000000000000 -1.86669804953942
0.96446195000000 1.79253002000000 106.13553324999999 -1.86770661872788
0.96446195000000 1.73985011000000  59.20777573000000 -1.86637718936083
0.96446195000000 1.68690912000000  89.93759556000001 -1.86736083160304
1.25572477000000 1.68068056000000 103.00000000000000 -1.86743021962650
0.96446195000000 1.83942172000000  78.89188083000001 -1.86771868400513
0.96446195000000 1.74290667000000  76.78981243000000 -1.86727787513246
0.96446195000000 1.71344974000000  99.23533120000000 -1.86746656581522
1.21475630000000 1.68888476000000  79.27280027000000 -1.86732982924912
0.96446195000000 1.72729621000000 108.43133133000001 -1.86746409175259
0.73930038000000 1.82380741000000 103.00000000000000 -1.86782778587406
0.98043882000000 1.68888476000000 117.89883301000000 -1.86725082885050
0.96446195000000 1.67925684000000  94.05348046000000 -1.86734893342589
0.84533202000000 1.68888476000000  98.60753635000000 -1.86737235689145
1.20127670000000 1.55587938000000 103.00000000000000 -1.86676911911263
1.09898613000000 1.68888476000000 127.66461128000000 -1.86727596850187
0.91722772000000 1.71158586000000 103.00000000000000 -1.86743603473508
1.09691033000000 1.89672998000000 103.00000000000000 -1.86808420110776
1.00142561000000 1.68888476000000 105.79198301000000 -1.86733873438345
0.91520379000000 1.41559623000000 103.00000000000000 -1.86562021063128
1.18934827000000 1.54590625000000 103.00000000000000 -1.86670140271474
1.15771371000000 1.68888476000000 103.31226945000000 -1.86741049358727
0.85975736000000 1.88432440000000 103.00000000000000 -1.86798291056846
0.96446195000000 1.65700905000000 125.78839677000001 -1.86705868887213
0.96446195000000 1.84292580000000  76.07738558000000 -1.86765968418911
0.87839058000000 1.62216753000000 103.00000000000000 -1.86706127210027
0.96446195000000 1.88818202000000  79.29091604000000 -1.86788513201134
0.96446195000000 1.56458290000000 129.41587978000001 -1.86654892714250
0.95551938000000 1.77497920000000 103.00000000000000 -1.86766136620349
1.21267571000000 1.66796604000000 103.00000000000000 -1.86735121139372
1.10474598000000 1.85587660000000 103.00000000000000 -1.86796741954618
1.01797306000000 1.77411550000000 103.00000000000000 -1.86767369665051
0.96446195000000 1.73699184000000 118.22761361000001 -1.86743910746100
1.09736276000000 1.68888476000000 135.06673115999999 -1.86725906462277
0.96446195000000 1.47287751000000 105.06286827000000 -1.86610291286320
0.69242663000000 1.68888476000000  89.49326357000000 -1.86726220216428
0.96723788000000 1.68888476000000 112.56709227000000 -1.86728305729150
1.21063393000000 1.47166170000000 103.00000000000000 -1.86619466893012
0.77116258000000 1.68888476000000  77.32400036999999 -1.86688613647232
0.96446195000000 1.44569047000000 104.71964644000001 -1.86587975787381
0.91709738000000 2.02311355000000 103.00000000000000 -1.86836160405130
0.96446195000000 1.69033885000000  70.56884516000000 -1.86671348874052
0.96446195000000 1.70157578000000  96.07862899000000 -1.86743282721341
0.97637983000000 1.68888476000000  95.66154272000000 -1.86738741906527
0.96446195000000 1.48234149000000  78.91460305000000 -1.86582606336094
0.96446195000000 1.51912909000000  96.84656330000000 -1.86651122137698
0.91105455000000 1.71698292000000 103.00000000000000 -1.86745585026961
0.82019893000000 1.68888476000000 119.79972164000000 -1.86723144335303
0.96446195000000 1.61641032000000  93.29296519000000 -1.86707374435173
0.96446195000000 1.71532608000000 119.17002334000000 -1.86734778875507
0.81154231000000 1.57193622000000 103.00000000000000 -1.86680766794518
0.82817160000000 1.68888476000000 100.51741613000000 -1.86736679344824
0.96446195000000 1.73800509000000 102.68574638000000 -1.86753812550012
1.39196639000000 1.68888476000000 120.37954747000001 -1.86753876566627
0.95459184000000 1.68888476000000  78.49233018000000 -1.86708715422685
0.96446195000000 1.69814739000000  96.62870433000001 -1.86741888286042
1.02408774000000 1.68888476000000  84.32376893000000 -1.86731802539236
0.95969103000000 1.78293190000000 103.00000000000000 -1.86768819691656
1.00743054000000 1.63521818000000 103.00000000000000 -1.86712477209596
0.96446195000000 1.75825682000000  67.43785244000000 -1.86689223406256
1.07275905000000 1.68888476000000 118.17206744000001 -1.86729276523181
0.80378282000000 1.43426095000000 103.00000000000000 -1.86580889257766
0.96446195000000 1.77359061000000  93.24990927000000 -1.86767645207908
1.14457295000000 1.68888476000000 106.78516782000000 -1.86738986846728
0.96446195000000 1.59989175000000  88.02855704000000 -1.86693867636689
0.94369709000000 1.68888476000000  97.04313252000000 -1.86738028324373
0.91148055000000 1.56019996000000 103.00000000000000 -1.86672839225878
1.38800109000000 1.70992341000000 103.00000000000000 -1.86762642636177
0.96446195000000 1.71681598000000  94.55462780000001 -1.86748934759066
1.23400555000000 1.61211476000000 103.00000000000000 -1.86710013955576
0.82112525000000 1.68888476000000 108.58481972000000 -1.86731564536888
0.79427575000000 1.68888476000000  69.44187153999999 -1.86650992689522
0.96446195000000 1.90741658000000  83.07782345000000 -1.86799409382127
1.05066099000000 1.68888476000000 113.79280824999999 -1.86730447950083
0.96446195000000 1.71674242000000  76.68789180000000 -1.86715388346488
0.79738976000000 1.68888476000000  99.38003286000000 -1.86737130282677
0.96446195000000 1.85864190000000  98.35989025000001 -1.86793019283277
0.99132333000000 1.71246602000000 103.00000000000000 -1.86744748802823
1.53204863000000 1.70956778000000 103.00000000000000 -1.86770453348208
1.18839131000000 1.68888476000000 108.55417222000000 -1.86740851832769
0.96446195000000 1.63459538000000  98.03565072000001 -1.86715110325417
1.14131039000000 1.89256755000000 103.00000000000000 -1.86809220627072
0.83767630000000 1.68888476000000 114.62057077999999 -1.86726559713441
1.29900016000000 1.61530212000000 103.00000000000000 -1.86715712655030
1.27319378000000 1.63772637000000 103.00000000000000 -1.86724966773158
0.84378347000000 1.95271732000000 103.00000000000000 -1.86817127574386
0.92766399000000 2.04364421000000 103.00000000000000 -1.86841485461889
0.96446195000000 1.81420462000000  77.90759552999999 -1.86760456419563
0.96446195000000 1.68940299000000  89.94789323000001 -1.86737063669443
0.96446195000000 1.53842133000000 118.92282627000000 -1.86646178465605
0.96446195000000 1.74270044000000  70.17478257000000 -1.86696444641530
0.95366968000000 1.96319179000000 103.00000000000000 -1.86821481418986
0.77099895000000 1.68718674000000 103.00000000000000 -1.86735418886963
0.81855326000000 1.75441111000000 103.00000000000000 -1.86759148979877
1.08124455000000 1.68888476000000 140.54910665000000 -1.86723102167207
1.02221083000000 1.68888476000000 120.36208803000000 -1.86725380179382
0.96446195000000 1.46318107000000  87.79353989000001 -1.86599407183587
1.15648119000000 1.68888476000000  93.89392067999999 -1.86743447911931
0.87374585000000 1.69406212000000 103.00000000000000 -1.86737042358845
0.99724084000000 1.68888476000000 102.71912926000000 -1.86735821447826
1.00715154000000 1.68888476000000  71.36310613000001 -1.86679299654327
1.14390492000000 1.84975775000000 103.00000000000000 -1.86796685186005
0.96446195000000 1.61414711000000 126.74384370000000 -1.86684389222864
1.07810344000000 1.57603484000000 103.00000000000000 -1.86683403957863
0.76827354000000 1.63770446000000 103.00000000000000 -1.86714466551825
0.84846908000000 1.80941828000000 103.00000000000000 -1.86776391109288
0.94130620000000 1.68888476000000  78.85506965000000 -1.86709018383408
0.85920311000000 1.68888476000000 115.14790101000000 -1.86725851827896
0.95426552000000 1.68888476000000 111.02803358000000 -1.86729182867725
0.96446195000000 1.62972037000000  91.99004374000000 -1.86713167484766
0.96446195000000 1.80800700000000  73.42691347000000 -1.86742932140248
0.96446195000000 1.96335291000000 126.69158664000000 -1.86821209854111
1.17823976000000 1.64995001000000 103.00000000000000 -1.86725232112155
0.96446195000000 1.62409494000000  67.59817285000000 -1.86620876201232
0.96446195000000 1.94789776000000  82.97800798999999 -1.86810361673713
1.20358088000000 1.64316334000000 103.00000000000000 -1.86723427904815
0.96446195000000 1.84016058000000  82.47211249999999 -1.86778816603169
1.33492585000000 1.68888476000000 118.63446005999999 -1.86749339581945
1.39410885000000 1.80750687000000 103.00000000000000 -1.86796125077797
0.96446195000000 2.16141485000000 111.55380513999999 -1.86871685757046
1.11350460000000 1.62037759000000 103.00000000000000 -1.86708174934358
0.93125953000000 1.68888476000000  89.80094029999999 -1.86735636791616
0.96446195000000 1.68830611000000  73.82264589000000 -1.86687667641741
0.96446195000000 1.62913582000000  72.76097738000000 -1.86649639925497
1.37548007000000 1.68888476000000 112.88130103000000 -1.86753130457316
1.03166123000000 1.68888476000000 112.48319391000000 -1.86730396496466
1.06703050000000 1.57763650000000 103.00000000000000 -1.86684004815925
1.07006024000000 1.68888476000000 103.85439909000000 -1.86737083106675
0.96446195000000 1.79035206000000  64.47788305000000 -1.86688638089072
1.09679297000000 1.68888476000000 112.67002599999999 -1.86733490325742
1.07980837000000 1.44448710000000 103.00000000000000 -1.86590718414186
0.89228505000000 1.97845471000000 103.00000000000000 -1.86824228259900
1.11325493000000 1.68888476000000 130.35272251000001 -1.86728199602169
0.96446195000000 1.88508809000000 107.05578228000000 -1.86799220762305
0.91980853000000 1.53977361000000 103.00000000000000 -1.86660268333912
1.00609713000000 1.68888476000000  92.60366320000000 -1.86739319897015
1.14664526000000 1.68888476000000  78.03238607999999 -1.86724158039794
0.96446195000000 1.89046522000000 114.89592207000000 -1.86798916519069
1.05428059000000 1.68888476000000 107.11038772000001 -1.86734626275666
0.98428260000000 1.68888476000000 102.42764905999999 -1.86735794317724
1.01612753000000 1.68888476000000  92.96607843000000 -1.86739612306337
0.96446195000000 1.56541082000000  79.02591182000000 -1.86642836267356
1.09635982000000 1.68888476000000  92.67495054000000 -1.86741691668419
1.44785370000000 1.68888476000000 119.94263943999999 -1.86758225502308
0.96446195000000 1.75978974000000  84.48673324000001 -1.86755691195754
0.96446195000000 1.51062098000000 143.13632996000001 -1.86591716423561
0.73767924000000 1.68888476000000 105.76968801000000 -1.86735205180514
1.04410132000000 1.68888476000000 106.28054869000000 -1.86734767908092
0.78334597000000 1.68888476000000  93.04746102000000 -1.86734763495497
1.11485811000000 1.83122617000000 103.00000000000000 -1.86789650286721
0.86013787000000 1.68888476000000 117.84620199000000 -1.86723858335370
0.86974990000000 1.68888476000000  79.29821815000000 -1.86704821651404
0.96446195000000 1.49658016000000  79.61940251000000 -1.86596886058157
1.09358235000000 1.90525874000000 103.00000000000000 -1.86810717681374
0.74739849000000 1.72609871000000 103.00000000000000 -1.86750431049711
0.96446195000000 1.60485730000000 118.31758927000000 -1.86684839488544
0.96446195000000 1.83630752000000  79.50048753000000 -1.86772141881329
1.20727928000000 1.68888476000000 113.04560374000000 -1.86740545248244
1.07195734000000 1.80622075000000 103.00000000000000 -1.86779877620290
0.80792139000000 1.68888476000000  74.41083356999999 -1.86677183631343
1.32195139000000 1.68888476000000 111.95553955000000 -1.86749291198839
1.02099043000000 1.68738223000000 103.00000000000000 -1.86735528374027
0.95051806000000 1.68888476000000 106.68003688000000 -1.86732392230454
0.92303061000000 1.89182892000000 103.00000000000000 -1.86801013762818
0.96446195000000 1.57329739000000 127.31866451000000 -1.86661675313871
1.13728471000000 1.68888476000000 108.70486901000000 -1.86737734579776
0.96446195000000 1.96275016000000 124.44540508999999 -1.86821126387224
0.96446195000000 1.59457879000000 135.85333449000001 -1.86666967550980
0.96446195000000 1.76946639000000  87.37545320000000 -1.86762888496173
1.03731324000000 1.94628807000000 103.00000000000000 -1.86819821745405
0.78713819000000 1.93172258000000 103.00000000000000 -1.86812204657599
0.93599096000000 1.68888476000000 108.47358590000000 -1.86730900768168
0.90586026000000 1.68888476000000  99.16841219000000 -1.86737065226362
1.23419707000000 1.57858426000000 103.00000000000000 -1.86692071137452
0.95854294000000 1.68888476000000  89.40461637999999 -1.86736166911464
0.75041096000000 1.68888476000000 104.22680540000000 -1.86735782305311
1.38293652000000 1.68888476000000 108.43028024000000 -1.86754049527713
0.81067517000000 1.68888476000000  61.13329469000000 -1.86614237070944
1.04336634000000 1.50466433000000 103.00000000000000 -1.86637112741118
0.96446195000000 1.86553874000000  94.49898159999999 -1.86794767640697
1.07131112000000 1.68888476000000 109.11162955000000 -1.86734150571260
0.96446195000000 1.76055341000000 101.77478691000000 -1.86762029199542
0.96446195000000 1.77285938000000  75.26567574000001 -1.86734996630298
0.96446195000000 1.70005067000000  75.67735221000000 -1.86702790457366
0.96446195000000 1.72594208000000  76.72700685000000 -1.86719845223456
0.96446195000000 1.75323847000000 108.99452610000000 -1.86755603766119
0.96446195000000 1.69284944000000  87.07399001000000 -1.86735058433715
0.90551307000000 1.68888476000000  87.06822575000000 -1.86730693015090
0.93965624000000 1.71832898000000 103.00000000000000 -1.86746226731861
0.96446195000000 1.69059352000000  82.06978035000000 -1.86722961658791
0.96446195000000 1.80813111000000 114.32062797000000 -1.86771934232070
0.76603184000000 1.79453444000000 103.00000000000000 -1.86773004763359
0.82312657000000 1.68888476000000 116.50853334000000 -1.86725427457191
1.08545506000000 1.99284293000000 103.00000000000000 -1.86834250924596
1.05175279000000 1.68888476000000 126.44638232000000 -1.86724457786090
1.20560701000000 1.65119220000000 103.00000000000000 -1.86727246822477
0.93479944000000 1.57141445000000 103.00000000000000 -1.86679174440087
0.89579934000000 1.70450092000000 103.00000000000000 -1.86740938140326
0.96446195000000 1.86102987000000  84.90680517000000 -1.86788187514503
1.22972459000000 1.68888476000000 106.76582552000001 -1.86744025188193
0.95104189000000 1.79244798000000 103.00000000000000 -1.86771730471310
1.08751011000000 1.68888476000000  81.17738022000000 -1.86728817675498
0.71571723000000 1.83836238000000 103.00000000000000 -1.86788086363708
1.02067603000000 1.74889756000000 103.00000000000000 -1.86758774919917
0.72950850000000 1.86669527000000 103.00000000000000 -1.86795884276842
1.34852352000000 1.68888476000000 109.47999618999999 -1.86751572713456
0.96446195000000 1.81463109000000 116.74297448999999 -1.86773072068229
0.88295488000000 1.58967548000000 103.00000000000000 -1.86689667597841
0.80659737000000 1.68888476000000  72.24526320000000 -1.86666086832986
0.96446195000000 1.69935512000000 100.62340731000000 -1.86740709752382
1.07814222000000 1.60175638000000 103.00000000000000 -1.86697443795833
0.97315550000000 1.79369393000000 103.00000000000000 -1.86772587968937
0.96446195000000 1.92862420000000 118.43433041999999 -1.86810483393515
0.96446195000000 1.72509186000000  85.21035264000000 -1.86744408165043
0.97362383000000 1.68888476000000 109.71235313000000 -1.86730497342103
0.78603554000000 1.68888476000000 100.37363916000000 -1.86736943322376
0.87780413000000 1.71797244000000 103.00000000000000 -1.86745985294010
1.02704164000000 1.82670680000000 103.00000000000000 -1.86784627726786
0.87534421000000 1.60276322000000 103.00000000000000 -1.86696571612947
0.96446195000000 1.69561642000000 112.24964407000000 -1.86731270916516
0.96446195000000 1.65013448000000 103.08912827000000 -1.86718755958088
0.74023332000000 1.74524288000000 103.00000000000000 -1.86757344017610
0.96446195000000 1.80174211000000 113.93735608999999 -1.86769919510323
0.89770306000000 1.68888476000000  78.27965555000000 -1.86702849279277
0.96446195000000 1.95351512000000 109.73905212000000 -1.86818854103842
1.03181650000000 1.86696690000000 103.00000000000000 -1.86797008179644
1.24219386000000 1.82943691000000 103.00000000000000 -1.86795245398241
0.96446195000000 1.70700214000000  85.89562586000000 -1.86738705272660
1.26457032000000 1.67945284000000 103.00000000000000 -1.86743028015178
0.96446195000000 1.57445458000000  92.12369748000000 -1.86684898898955
1.05029018000000 1.68888476000000  67.11275946000001 -1.86660110600565
0.96446195000000 1.59048318000000  95.32741957000000 -1.86694398862949
0.96446195000000 1.88138944000000 104.32748862000000 -1.86798734162926
0.96446195000000 1.74897503000000  97.15472969000000 -1.86759691433861
1.17563838000000 1.68888476000000  81.30343492000000 -1.86735067183565
0.86175964000000 1.80689102000000 103.00000000000000 -1.86775560099977
1.02141005000000 1.68888476000000 109.64224478000000 -1.86731842719530
1.06772404000000 1.68888476000000  95.46400688000000 -1.86740630985162
0.93689309000000 1.81112819000000 103.00000000000000 -1.86777371506957
1.00858823000000 1.73045884000000 103.00000000000000 -1.86751829700586
1.16306489000000 1.70532262000000 103.00000000000000 -1.86748076285642
0.96446195000000 1.78523364000000  92.78052716000001 -1.86771140637757
0.82279729000000 1.64208480000000 103.00000000000000 -1.86715923336271
1.22284478000000 1.70066965000000 103.00000000000000 -1.86749344330394
0.96446195000000 1.77089985000000 100.00156094000000 -1.86766126734256
1.25990429000000 1.68888476000000  82.30044684000001 -1.86741356999539
1.30801081000000 1.68888476000000 104.93504469000000 -1.86749377747788
0.95017619000000 1.68888476000000 126.00249925000000 -1.86719539192347
0.96446195000000 1.80353776000000 105.21984383000000 -1.86774652947940
0.97587038000000 1.72287438000000 103.00000000000000 -1.86748359564774
0.89803370000000 1.68888476000000  71.96057574000000 -1.86671812479267
0.96446195000000 1.90854602000000  88.73968755000000 -1.86804320620843
0.96446195000000 1.59920174000000 139.89437201999999 -1.86665568534431
1.02122600000000 1.68888476000000 118.62927947000000 -1.86726268137227
0.94662797000000 1.68888476000000  95.90875892000000 -1.86738294372878
1.00429987000000 1.85992827000000 103.00000000000000 -1.86793923042876
0.92631684000000 1.81566267000000 103.00000000000000 -1.86778611417060
0.96446195000000 1.88306371000000  91.45963906999999 -1.86798756173414
1.12163924000000 1.68888476000000  96.99461340000001 -1.86741753740330
0.96446195000000 1.60156840000000  77.29581527000001 -1.86656968707769
0.96446195000000 1.97142461000000 115.23627971000001 -1.86823908519398
1.00676816000000 1.68888476000000 103.66840995000000 -1.86735400702742
0.96446195000000 1.64079359000000 135.10379205999999 -1.86693066315308
0.95407837000000 2.07817327000000 103.00000000000000 -1.86850398567242
0.95058570000000 1.69383403000000 103.00000000000000 -1.86736995091530
1.09877837000000 1.68888476000000  62.47064711000000 -1.86640777070909
0.79920463000000 1.68888476000000 128.39686301000000 -1.86717985733628
0.96446195000000 1.61937054000000  96.32481370000001 -1.86708690322860
0.96446195000000 1.67507184000000  85.76828555000000 -1.86725426833868
1.01735141000000 1.68888476000000  79.70070982000000 -1.86718767074558
0.96446195000000 1.67443426000000  95.46230550000000 -1.86732934247902
0.96446195000000 1.64224324000000 109.01634364000000 -1.86710337714669
0.90919622000000 1.68888476000000  94.45980686999999 -1.86737811607884
0.90388776000000 1.68888476000000  85.82154377000001 -1.86728076961526
0.82590593000000 1.68888476000000 103.94917192000000 -1.86734863555171
0.96891811000000 1.68888476000000  76.48406022000000 -1.86701356605568
0.79271227000000 1.85115568000000 103.00000000000000 -1.86789486734074
1.29763920000000 1.68888476000000 109.43143092000000 -1.86747987668798
1.45390209000000 1.56888991000000 103.00000000000000 -1.86701667601733
1.07314580000000 1.68888476000000 112.79370349000000 -1.86732142368237
0.96446195000000 1.63902859000000  98.97600729000000 -1.86716619999299
1.08807359000000 1.70093747000000 103.00000000000000 -1.86743057146691
1.21248468000000 1.59753973000000 103.00000000000000 -1.86701168502907
0.96446195000000 1.62841703000000  89.57631886000000 -1.86710521195437
0.91125094000000 1.68888476000000 114.34173310000000 -1.86726270551469
0.96446195000000 1.69539628000000 105.42988367000000 -1.86736091556224
0.86965395000000 1.68888476000000 116.25474168000000 -1.86724925534429
0.84580345000000 1.61806484000000 103.00000000000000 -1.86704494277649
0.98606814000000 1.47481901000000 103.00000000000000 -1.86613986344059
0.92222192000000 1.68888476000000 110.20395875000000 -1.86729475839036
0.96446195000000 1.78176457000000 122.12192271000001 -1.86758876672650
0.96446195000000 1.80261758000000 108.61553155999999 -1.86772818304053
0.96446195000000 1.45176905000000  75.86315316000000 -1.86545599246028
0.86551721000000 1.79744992000000 103.00000000000000 -1.86772633212217
1.06944173000000 1.87678448000000 103.00000000000000 -1.86801427595310
0.97772624000000 1.68831483000000 103.00000000000000 -1.86735100900250
1.15262349000000 1.69221343000000 103.00000000000000 -1.86742289133474
1.01636459000000 1.68888476000000 100.20483855000001 -1.86737648946144
0.99107068000000 1.54572603000000 103.00000000000000 -1.86663866916899
1.12910909000000 1.68888476000000 107.29342782000001 -1.86737936734721
0.92482681000000 1.52729846000000 103.00000000000000 -1.86652148063149
0.82479875000000 1.68030477000000 103.00000000000000 -1.86732073090786
0.96446195000000 1.72990193000000  80.34972946000001 -1.86734593194637
0.99757175000000 1.68888476000000  68.98682699000000 -1.86665166160230
1.02612688000000 1.57906669000000 103.00000000000000 -1.86683944894901
0.96446195000000 1.69863757000000  99.06940650999999 -1.86741211652907
0.97013095000000 1.65946551000000 103.00000000000000 -1.86722972914708
1.07953658000000 1.68888476000000  86.51600769000000 -1.86738066847465
1.03315382000000 1.68888476000000  81.14705787000000 -1.86724656391391
1.20440190000000 1.68888476000000  76.05168188000000 -1.86722128392432
0.96446195000000 1.78923205000000  89.86502010000000 -1.86771139623875
0.95552135000000 1.68888476000000  74.36859217999999 -1.86689861010916
1.05828484000000 1.65241900000000 103.00000000000000 -1.86721514217197
1.02343162000000 1.68888476000000 119.00933313000000 -1.86726162800630
1.02781782000000 1.68888476000000  87.63181029000000 -1.86737023572744
0.96446195000000 1.61741520000000 118.96216828999999 -1.86690868273729
0.96446195000000 1.67073913000000 141.54818169999999 -1.86704648812281
0.96446195000000 1.82395223000000  96.97686962000000 -1.86783052133569
1.47781642000000 1.68888476000000 117.10881584000001 -1.86760368638943
0.99805713000000 1.68888476000000 138.45121477000001 -1.86716981841619
1.12358526000000 1.66610795000000 103.00000000000000 -1.86729927320755
1.08830454000000 1.68888476000000  99.57306769000000 -1.86739789151386
1.25519812000000 1.76106748000000 103.00000000000000 -1.86773610973466
1.01237150000000 1.66313115000000 103.00000000000000 -1.86725159071739
1.33150260000000 1.64039673000000 103.00000000000000 -1.86729953551833
1.06396325000000 1.68888476000000  83.98562973000000 -1.86733518689266
0.98526705000000 1.43138019000000 103.00000000000000 -1.86577025985343
0.89580383000000 1.80198179000000 103.00000000000000 -1.86774086132368
0.95904272000000 1.68888476000000  67.04408789999999 -1.86650853429421
0.96446195000000 1.56577572000000  78.56963368000000 -1.86640902756426
0.91242423000000 1.84630102000000 103.00000000000000 -1.86787658158164
1.31369524000000 1.68888476000000 108.26208065000000 -1.86749310088612
0.85599273000000 1.68888476000000  85.77678535000000 -1.86725349062067
1.23333540000000 1.79828771000000 103.00000000000000 -1.86784941671851
1.00630919000000 1.64018890000000 103.00000000000000 -1.86714777305986
1.05438446000000 1.51480066000000 103.00000000000000 -1.86644454439772
0.96446195000000 2.04846870000000  88.16586848000000 -1.86838933642389
0.96446195000000 1.83906808000000 106.02827274000001 -1.86785547817010
0.95567149000000 1.68888476000000 142.76056081999999 -1.86712371056137
0.99534847000000 1.68888476000000  66.24637855000000 -1.86650049584580
0.90405569000000 2.04896421000000 103.00000000000000 -1.86842287159232
1.36187619000000 1.67426869000000 103.00000000000000 -1.86746843904552
0.99780770000000 1.68888476000000 104.49919764000001 -1.86734669661359
1.50246998000000 1.68888476000000 109.82868375000000 -1.86761807108110
0.96446195000000 1.70995618000000  71.68534880999999 -1.86687743160905
1.12218988000000 1.81622840000000 103.00000000000000 -1.86785266463846
1.29287525000000 1.67209761000000 103.00000000000000 -1.86741619666225
0.96446195000000 1.82963412000000 108.52690492000001 -1.86781642882090
1.18641159000000 1.68888476000000 122.64817019000000 -1.86736079643447
0.96446195000000 1.59936745000000 101.84519695000000 -1.86695356485893
0.96446195000000 1.64576034000000 129.14071258999999 -1.86698784825614
0.96446195000000 1.59332371000000 107.33918400000000 -1.86687228504763
0.83424822000000 2.04425584000000 103.00000000000000 -1.86840638597846
1.26512443000000 1.78233714000000 103.00000000000000 -1.86781367358105
1.03651089000000 1.68888476000000 134.35155950999999 -1.86721021453138
0.98245887000000 1.68888476000000  61.78626425000000 -1.86627975225679
0.96446195000000 1.86090299000000  66.84076742000001 -1.86736853166258
1.23985615000000 1.68888476000000  89.74408314000000 -1.86745933716827
1.00045781000000 1.70214521000000 103.00000000000000 -1.86740960939733
0.96446195000000 1.69008639000000 106.96604373000000 -1.86732842956644
0.96446195000000 1.70739722000000  61.25730304000000 -1.86632309259392
0.98546350000000 2.04363665000000 103.00000000000000 -1.86843181300958
0.88271455000000 1.68888476000000  83.48617159000000 -1.86720743360263
1.05743527000000 1.68888476000000 108.23451633000001 -1.86734073040145
1.05574557000000 1.68888476000000 102.92722639000000 -1.86737124800845
0.92443214000000 1.68888476000000 114.48715916000000 -1.86726253257586
1.23502389000000 1.68888476000000  85.02140966000000 -1.86743295347912
1.12060022000000 1.89399804000000 103.00000000000000 -1.86808690834710
0.96446195000000 1.60195059000000 115.23890163000000 -1.86685431178353
0.79314788000000 1.68888476000000 104.92712044000000 -1.86734693365668
0.96728846000000 1.63067546000000 103.00000000000000 -1.86709914088283
1.07641583000000 1.68888476000000 136.10069806000001 -1.86723830556775
1.20313948000000 1.69452971000000 103.00000000000000 -1.86745793679756
0.90000292000000 1.80010502000000 103.00000000000000 -1.86773525604281
1.32596537000000 1.51287789000000 103.00000000000000 -1.86657526937881
1.45853863000000 1.55888254000000 103.00000000000000 -1.86696233387988
0.99965001000000 1.65340057000000 103.00000000000000 -1.86720667486600
0.96446195000000 1.66628105000000  98.66450362000000 -1.86728575082498
0.88601535000000 1.75900668000000 103.00000000000000 -1.86760243298625
1.16188080000000 1.68888476000000 131.29342810000000 -1.86732476691486
1.17990130000000 1.79954728000000 103.00000000000000 -1.86782646167910
0.99914352000000 1.84122148000000 103.00000000000000 -1.86788134626136
0.82348674000000 1.95478784000000 103.00000000000000 -1.86817809781451
0.96446195000000 2.01243427000000 124.48195258000000 -1.86836961730239
0.88839426000000 1.48792252000000 103.00000000000000 -1.86624629184780
1.46101261000000 1.68888476000000 108.34203319000000 -1.86759177226986
1.01718536000000 1.68888476000000  56.09570109000000 -1.86612169148725
0.97723251000000 1.69887113000000 103.00000000000000 -1.86739275377079
1.26182501000000 1.68888476000000  88.25662178000000 -1.86746237891293
0.86098773000000 1.67748552000000 103.00000000000000 -1.86730588039313
1.09002047000000 1.68888476000000 130.91368381999999 -1.86726107054164
0.96446195000000 1.76156673000000 105.71574683000000 -1.86760428696221
0.96446195000000 1.89007820000000  95.60867365000000 -1.86801688015589
1.06121979000000 1.53731147000000 103.00000000000000 -1.86659586951362
0.84468289000000 1.68888476000000  70.45496645999999 -1.86659412522124
1.26159856000000 1.78701524000000 103.00000000000000 -1.86782728975277
0.98223879000000 1.68888476000000 109.13380589000000 -1.86731096739754
0.75013377000000 1.83667536000000 103.00000000000000 -1.86786306141300
1.12171581000000 1.68888476000000  83.70791709000000 -1.86736338624064
0.96446195000000 1.85690574000000  78.58764502000000 -1.86777108314686
1.01242691000000 1.68888476000000  74.87086932000000 -1.86698083500698
1.31153830000000 1.75229929000000 103.00000000000000 -1.86773662518078
0.96446195000000 1.47289361000000  96.57249191000000 -1.86616915431614
0.96446195000000 1.48364727000000  91.40971687000000 -1.86623160675970
0.96446195000000 1.93755577000000  80.98983577000000 -1.86805409708427
0.86692279000000 1.92672954000000 103.00000000000000 -1.86810103288394
0.96446195000000 1.96771878000000  98.27576206000001 -1.86822700104040
1.25404758000000 1.73928089000000 103.00000000000000 -1.86765806662106
0.96446195000000 1.80112225000000 100.26871851999999 -1.86775639449525
1.01509368000000 1.67091999000000 103.00000000000000 -1.86728555744776
1.51929600000000 1.65787686000000 103.00000000000000 -1.86749462961893
0.96446195000000 1.77379974000000 124.71406111000000 -1.86754789953090
0.96446195000000 1.67031315000000  61.83126557000000 -1.86618707565117
0.96446195000000 1.75458264000000 124.76749725000001 -1.86747413339799
0.89819761000000 1.68176463000000 103.00000000000000 -1.86732086107577
0.88752179000000 2.02012050000000 103.00000000000000 -1.86834902133876
1.26295374000000 1.68888476000000 120.77317007000001 -1.86743001720049
0.96446195000000 1.57883541000000 111.50218669000000 -1.86675636059704
1.13757876000000 1.68888476000000 114.32876971000000 -1.86735202589682
0.96446195000000 1.77523909000000  99.20799784000000 -1.86767768045513
0.76285922000000 1.68888476000000 133.51303976000000 -1.86715742547085
0.97501152000000 1.68888476000000 111.67145175000000 -1.86729117548464
1.13503111000000 1.68888476000000 105.81038184000001 -1.86738912489295
0.96446195000000 1.63414596000000 124.41907260000001 -1.86695784352446
0.96446195000000 1.68253486000000  96.30706398000000 -1.86735983524477
1.05691082000000 1.48104087000000 103.00000000000000 -1.86619899940490
0.96446195000000 1.98485650000000 113.12652562000000 -1.86827818088489
1.44784138000000 1.68888476000000 109.57858797000000 -1.86758347005014
1.10433493000000 1.68888476000000 109.30462851999999 -1.86735652293100
0.72451313000000 1.80295756000000 103.00000000000000 -1.86776824806532
1.03947351000000 1.47866585000000 103.00000000000000 -1.86617676407263
1.07937662000000 1.80258826000000 103.00000000000000 -1.86779010383020
1.46743546000000 1.60258233000000 103.00000000000000 -1.86720640908311
0.96446195000000 1.72066809000000 109.79502847000001 -1.86742969501972
0.76551601000000 1.74964649000000 103.00000000000000 -1.86758353764571
0.98088807000000 1.58840701000000 103.00000000000000 -1.86688607058090
1.34591273000000 1.78945944000000 103.00000000000000 -1.86787986244190
0.71199303000000 1.80683445000000 103.00000000000000 -1.86778514559921
0.83054555000000 1.68888476000000  77.36215701000000 -1.86693164516691
0.96446195000000 1.78034709000000  71.08887824999999 -1.86719836793100
0.92483566000000 1.63325913000000 103.00000000000000 -1.86711063655821
1.29972301000000 1.68888476000000  83.58325966000000 -1.86744605863896
0.89785519000000 1.68888476000000 100.82686590000000 -1.86736252500350
0.68782040000000 1.68888476000000 108.60489548000000 -1.86735191756622
1.12340839000000 1.68888476000000 110.92876769999999 -1.86735894183926
0.96446195000000 1.51733068000000 113.81482151000000 -1.86635561223989
0.99551762000000 1.68888476000000  87.10408382999999 -1.86734951688197
1.04634305000000 1.68888476000000 118.03492873000000 -1.86727848626481
1.33240978000000 1.68888476000000  88.16272656000000 -1.86748776824311
0.96446195000000 1.61484687000000  81.82902726000000 -1.86684657622834
1.19394698000000 1.68888476000000  76.20874375000000 -1.86721793931906
1.27642551000000 1.47804404000000 103.00000000000000 -1.86628795313970
1.55388969000000 1.59558898000000 103.00000000000000 -1.86722414082453
0.96446195000000 1.58615382000000  94.98534764000000 -1.86692126429693
0.94678736000000 1.88252121000000 103.00000000000000 -1.86798854375752
1.19119411000000 1.83069224000000 103.00000000000000 -1.86793102637864
1.08651010000000 1.68888476000000  99.63712365000001 -1.86739706332583
1.19484992000000 1.68888476000000 131.32176679000000 -1.86735629810005
1.07757265000000 1.68888476000000 143.65326422000001 -1.86721619603657
0.86002811000000 1.68888476000000  77.19145842000000 -1.86694785904729
1.00694046000000 1.68888476000000 109.05052532000001 -1.86731785524637
1.22624283000000 1.68888476000000 102.76532117000001 -1.86744796947232
1.20228197000000 1.68888476000000 128.74629246000001 -1.86736564928731
0.79023347000000 1.46343846000000 103.00000000000000 -1.86606477883106
0.82261984000000 1.64950616000000 103.00000000000000 -1.86719211683032
0.92203621000000 1.68888476000000  75.32935759999999 -1.86691421188641
0.96446195000000 1.91754334000000 119.88517536000001 -1.86806713220290
0.91054512000000 1.68888476000000  76.34349602000000 -1.86695239928304
1.30389179000000 1.69746648000000 103.00000000000000 -1.86752763880918
0.98171363000000 1.57312628000000 103.00000000000000 -1.86680132768333
1.50700680000000 1.68888476000000 109.93658775999999 -1.86762088935018
1.24377018000000 1.65919301000000 103.00000000000000 -1.86733025373928
1.13525888000000 1.68888476000000 110.63419905000001 -1.86736732020825
1.07478975000000 1.68888476000000  77.02182418000000 -1.86713926397317
0.96446195000000 1.61222436000000 123.63466373000000 -1.86685289566515
0.99486500000000 1.68888476000000 116.23256262000000 -1.86726616108888
0.94417770000000 1.68888476000000  88.76703394000000 -1.86734941705436
1.23504977000000 1.68888476000000 111.71984997000000 -1.86742961972448
0.96446195000000 1.76192782000000  96.53468402000000 -1.86764038792023
0.96446195000000 1.89276009000000  90.92126970000000 -1.86801166157966
0.79467897000000 1.77853757000000 103.00000000000000 -1.86767377763715
0.96446195000000 1.89682204000000 109.75960419000000 -1.86802112871396
0.96446195000000 1.78339539000000 112.81368209000000 -1.86764115654125
1.24319277000000 1.50540216000000 103.00000000000000 -1.86646566377874
0.96446195000000 1.49226043000000  93.19195841000000 -1.86631465537209
0.88293247000000 1.68888476000000  99.03567292000000 -1.86737093577096
1.14621531000000 1.68888476000000 139.52698110000000 -1.86729689633682
0.96446195000000 1.61201433000000 103.99679347000000 -1.86699961793033
0.95468824000000 1.68888476000000 130.68134126999999 -1.86717508201411
0.88459580000000 1.68888476000000 113.00037718000000 -1.86727291299621
0.96446195000000 1.75970423000000  78.92331206999999 -1.86742387705931
0.96446195000000 1.74970259000000 100.77724578999999 -1.86758783024652
0.96446195000000 1.78993475000000 106.51376879999999 -1.86769624224848
0.96446195000000 1.99548697000000 107.92491208000000 -1.86830607162619
1.16444671000000 1.68888476000000 104.69128691000000 -1.86740883330663
1.29678077000000 1.68888476000000  86.30409711000000 -1.86746568392050
0.68473591000000 1.68888476000000 132.00311311999999 -1.86721887559395
1.03445064000000 1.72843012000000 103.00000000000000 -1.86751793585859
0.96961179000000 1.68888476000000 100.70626586000000 -1.86736654393724
0.97949607000000 1.68888476000000 106.88161469000001 -1.86732659341374
0.92708169000000 2.07202748000000 103.00000000000000 -1.86848258262967
0.91403477000000 1.68888476000000  83.07752594999999 -1.86721630633610
0.96446195000000 1.81285784000000  88.13460090000000 -1.86777068347396
0.96446195000000 1.53252887000000 101.81958684000000 -1.86656525564695
0.96540094000000 1.68045628000000 103.00000000000000 -1.86731769060907
0.94922495000000 1.68888476000000 104.56931535000000 -1.86733930893581
1.04562055000000 1.86004964000000 103.00000000000000 -1.86795486998642
0.96446195000000 1.61322000000000 110.52883875000001 -1.86694911950246
0.96446195000000 1.71137944000000  66.77774280000000 -1.86661440709895
1.14049940000000 1.68888476000000 120.62437941000000 -1.86732926365937
0.82194825000000 1.68888476000000  78.02768836000000 -1.86695511833841
0.96446195000000 1.61989539000000 109.13684979000000 -1.86699438739606
0.96446195000000 1.81072920000000 114.72192694000000 -1.86772638490891
0.94739416000000 1.67691111000000 103.00000000000000 -1.86730171653130
1.00804138000000 1.68888476000000  78.35205805000000 -1.86712973806357
0.89765733000000 1.66217634000000 103.00000000000000 -1.86724008470969
0.96446195000000 1.54990379000000  89.84228435999999 -1.86667887702822
0.96446195000000 1.74282410000000  66.42199787000000 -1.86675557303727
0.96446195000000 1.71176006000000  87.88867834000000 -1.86743440490750
0.96446195000000 1.79762817000000  75.34017132000000 -1.86745822439480
0.84967277000000 1.43620774000000 103.00000000000000 -1.86582083535029
0.96446195000000 1.94512407000000  93.41312658000000 -1.86815867103405
0.70675829000000 1.68888476000000 132.44763237999999 -1.86719737920248
0.96446195000000 1.86454813000000 116.30419465000000 -1.86790114097710
0.96446195000000 1.55882858000000 109.38484004000000 -1.86665744392496
1.08442268000000 1.68888476000000  90.07667592999999 -1.86740841283972
0.86833686000000 1.77804508000000 103.00000000000000 -1.86766493824348
0.96446195000000 1.82994654000000  82.80594542000000 -1.86776133561239
0.96446195000000 1.49731116000000 107.88848541000000 -1.86626184618638
0.96446195000000 1.63717217000000  57.94344421000000 -1.86593609235024
1.06784118000000 1.47547184000000 103.00000000000000 -1.86615861727739
1.03667274000000 1.70145627000000 103.00000000000000 -1.86741567270553
1.20672951000000 1.68888476000000 114.24704796000000 -1.86740104637329
1.00962093000000 1.58219180000000 103.00000000000000 -1.86685454761152
0.96446195000000 1.45793680000000 109.83791771999999 -1.86593601413074
0.94909996000000 1.81681772000000 103.00000000000000 -1.86779353196403
1.12223731000000 1.68888476000000  86.08624879000000 -1.86739515399245
0.98650032000000 1.68888476000000  88.93873035999999 -1.86736719049406
0.90094246000000 1.68888476000000  74.85675827999999 -1.86687128781307
0.94260630000000 1.68888476000000  97.23211394000000 -1.86737965401414
1.17427150000000 1.68888476000000 125.99180858000000 -1.86734363335609
0.96446195000000 1.69655907000000 102.38050207000001 -1.86738597354326
1.12654958000000 1.69143785000000 103.00000000000000 -1.86740783223468
0.92621552000000 1.84971912000000 103.00000000000000 -1.86788871575061
0.95745945000000 1.98445482000000 103.00000000000000 -1.86827244927235
0.96446195000000 1.86760330000000  77.89074191000000 -1.86779178387349
1.10190522000000 1.86806760000000 103.00000000000000 -1.86800262512395
1.13241962000000 1.79233598000000 103.00000000000000 -1.86777994567865
0.89133669000000 1.84064458000000 103.00000000000000 -1.86785778562830
0.96446195000000 1.70503582000000 110.05531596000000 -1.86736652507216
0.82680796000000 1.78320824000000 103.00000000000000 -1.86768425960611
1.04201260000000 1.78075509000000 103.00000000000000 -1.86770387584659
0.96446195000000 1.90295033000000  84.06827835999999 -1.86799200678718
0.92230448000000 1.82847971000000 103.00000000000000 -1.86782463032114
1.14236015000000 1.61078234000000 103.00000000000000 -1.86704525052153
1.08008947000000 1.85992539000000 103.00000000000000 -1.86796877330369
0.96446195000000 1.83735090000000 108.76664316999999 -1.86784006783944
0.96446195000000 1.72486428000000  59.43940575000000 -1.86632400043413
1.04624929000000 1.69739362000000 103.00000000000000 -1.86740232138118
0.96446195000000 1.64861409000000 111.87344480000000 -1.86711038825865
0.87919880000000 1.68888476000000 110.78119056000000 -1.86729062239692
0.96412263000000 1.58660182000000 103.00000000000000 -1.86687568596210
1.08611798000000 1.68888476000000  63.75241170000000 -1.86645770375151
0.98811007000000 1.68888476000000 121.86709729000000 -1.86723051120487
0.98902819000000 1.70560176000000 103.00000000000000 -1.86742081279544
0.96446195000000 1.89017303000000 108.33223017000000 -1.86800439690728
0.96446195000000 1.79189008000000 100.04869604000000 -1.86772818133556
1.40351082000000 1.68888476000000  92.66382843000000 -1.86753298760391
0.99848838000000 1.79845409000000 103.00000000000000 -1.86774779635186
1.01878722000000 1.68888476000000 126.84573996000000 -1.86722240151380
1.07459714000000 1.84216124000000 103.00000000000000 -1.86791261961082
0.85249419000000 1.62205597000000 103.00000000000000 -1.86706339730688
0.96446195000000 1.72444112000000 103.20606282000000 -1.86748636457139
1.00463704000000 1.68062023000000 103.00000000000000 -1.86732410097284
1.19673052000000 1.68888476000000  87.62382529999999 -1.86743629656007
0.96446195000000 1.93655078000000 122.72030497999999 -1.86812629909286
1.36999468000000 1.68888476000000 114.95469292999999 -1.86752506540870
0.84848609000000 1.63389818000000 103.00000000000000 -1.86711933706829
1.34589068000000 1.68888476000000  89.56888590000000 -1.86749819580803
1.05163338000000 1.68888476000000  95.18476367000000 -1.86740300413032
0.96446195000000 1.64434072000000 125.12933864000000 -1.86700284822302
1.13445689000000 1.63378895000000 103.00000000000000 -1.86715584730302
1.07651699000000 1.68888476000000  82.00137447000000 -1.86730097626878
1.25333330000000 1.78616953000000 103.00000000000000 -1.86782013573315
0.87802843000000 1.68888476000000 109.61425027000000 -1.86729998653118
1.08451071000000 1.85646757000000 103.00000000000000 -1.86796029295658
1.13133896000000 1.67747940000000 103.00000000000000 -1.86735167095094
1.06556981000000 1.68888476000000 121.38153534999999 -1.86727343346274
0.96446195000000 1.51771113000000 116.63253236000000 -1.86633980973477
0.99593678000000 1.51680552000000 103.00000000000000 -1.86644984319150
0.90868082000000 2.00156239000000 103.00000000000000 -1.86830510400989
0.96446195000000 1.59301542000000 129.18693825000000 -1.86671505909476
1.06964812000000 1.68888476000000 104.58515432000000 -1.86736664858927
0.88956023000000 1.76569518000000 103.00000000000000 -1.86762462595368
0.92791619000000 1.68888476000000 109.70289256000000 -1.86729896353484
0.96446195000000 1.57193490000000 138.06073185000000 -1.86650199421024
1.48441239000000 1.70846417000000 103.00000000000000 -1.86767561248359
0.96446195000000 1.87347481000000  81.34676414000000 -1.86787331532571
0.96446195000000 1.67942134000000  74.27739269999999 -1.86685324571329
0.96446195000000 1.80018490000000 121.73269302000000 -1.86765801903209
1.42054179000000 1.65448823000000 103.00000000000000 -1.86742074891447
1.21745975000000 1.68888476000000 117.68008580000000 -1.86739885979762
0.93125067000000 1.52469471000000 103.00000000000000 -1.86650367842333
1.20551955000000 1.55196415000000 103.00000000000000 -1.86674775762458
0.86109584000000 1.68888476000000 106.39046390999999 -1.86732695206967
0.90705656000000 1.68888476000000  99.28222975000000 -1.86737018843678
0.96446195000000 1.60286644000000 107.65300938000000 -1.86692015254118
0.96446195000000 1.79536341000000  79.57980884000000 -1.86757937319169
0.96446195000000 1.86923062000000  89.02850415000000 -1.86793812683277
1.10973885000000 1.68888476000000 111.85080001000000 -1.86734648041829
0.82912640000000 1.95618218000000 103.00000000000000 -1.86818131688733
1.18276080000000 1.68888476000000 118.70294410000000 -1.86736835632655
0.82361064000000 1.73688562000000 103.00000000000000 -1.86753122180755
0.96446195000000 1.80012682000000 110.12078604000000 -1.86771256959207
1.13725617000000 1.68888476000000  65.77221504000001 -1.86661237712394
1.20695272000000 1.68888476000000 123.32142037000000 -1.86737714039111
1.10674786000000 1.95444840000000 103.00000000000000 -1.86824972045451
0.95208293000000 1.68888476000000 137.71099498000001 -1.86714483739524
0.86293383000000 1.91843779000000 103.00000000000000 -1.86807813223345
0.96446195000000 1.53833751000000 128.06219781999999 -1.86639697002840
0.96446195000000 1.76506566000000 124.26591041000000 -1.86751659766662
0.96446195000000 1.85547200000000 110.88065852000000 -1.86788980930692
0.99187245000000 1.68888476000000  85.89964491000001 -1.86732915053153
0.94814726000000 1.66737313000000 103.00000000000000 -1.86726202608384
1.18891749000000 1.68888476000000 109.75921092000000 -1.86740447386035
0.88201163000000 1.64583640000000 103.00000000000000 -1.86717013055386
1.17003312000000 1.55727363000000 103.00000000000000 -1.86676088815921
0.96446195000000 1.60180264000000  91.69355075000000 -1.86699350689810
0.96446195000000 1.57982887000000 117.87489797000001 -1.86671573846070
1.15521930000000 1.68888476000000 122.73178436000001 -1.86733455185674
1.02408287000000 1.53988003000000 103.00000000000000 -1.86660517930522
1.10154522000000 1.83491565000000 103.00000000000000 -1.86790198364713
0.96446195000000 1.70293918000000  62.96851716000000 -1.86637823440788
0.99464972000000 1.65854487000000 103.00000000000000 -1.86722862164697
0.80966531000000 1.67305368000000 103.00000000000000 -1.86729306997893
0.83012804000000 1.71477944000000 103.00000000000000 -1.86745185249345
0.77695441000000 1.66523408000000 103.00000000000000 -1.86726421978074
1.10735148000000 1.70034079000000 103.00000000000000 -1.86743577112850
0.96446195000000 1.87630273000000 103.12445382000000 -1.86797485578620
0.96480764000000 1.48120843000000 103.00000000000000 -1.86618924830532
0.96446195000000 1.62583713000000 113.75434737000000 -1.86698716786464
1.02322956000000 1.68888476000000 118.20984879000000 -1.86726596455469
0.94784180000000 1.88382915000000 103.00000000000000 -1.86799255886615
0.93775425000000 1.68888476000000  82.24110180000000 -1.86720778063579
1.23807889000000 1.68888476000000 104.20293495000000 -1.86745164227762
1.04916275000000 1.68888476000000 102.95286985000000 -1.86736912582978
0.96446195000000 1.79638654000000  97.55789935000000 -1.86774733128902
0.96446195000000 1.70810911000000  85.35777655000000 -1.86738167963892
0.96446195000000 1.82878018000000  79.90477287000000 -1.86770456331533
0.96446195000000 1.83293029000000  80.00919184999999 -1.86772073824613
0.90231321000000 1.68702371000000 103.00000000000000 -1.86734170781926
0.97013558000000 1.68888476000000 125.66306677999999 -1.86720401463310
0.92098840000000 1.55808027000000 103.00000000000000 -1.86671501393869
0.90990751000000 1.60510396000000 103.00000000000000 -1.86697451807947
0.89203417000000 2.04443712000000 103.00000000000000 -1.86840991594750
1.03044163000000 1.68888476000000  87.42983550000000 -1.86736913192760
0.96446195000000 2.09003578000000  86.45035894999999 -1.86847120298376
0.82990468000000 1.68888476000000 115.05841893000000 -1.86726369298947
0.96446195000000 1.72277198000000 108.61108022000001 -1.86744573673593
1.30789198000000 1.81292626000000 103.00000000000000 -1.86793453947485
1.07157079000000 1.68888476000000 129.36888078999999 -1.86724999314436
0.95283071000000 1.68888476000000  90.20975154000000 -1.86736709788852
0.96446195000000 1.93280835000000 115.50485363999999 -1.86812133966373
0.96446195000000 1.62862722000000  78.35143223999999 -1.86677693323838
0.93666589000000 1.68888476000000  90.76011059000000 -1.86736668635876
1.26959530000000 1.64522099000000 103.00000000000000 -1.86728241496576
1.00313371000000 1.68888476000000  66.28779036000000 -1.86651010212177
0.96446195000000 1.71357652000000 143.10698439000001 -1.86724113558012
0.96446195000000 1.93494422000000 127.61888414000001 -1.86811537853066
0.84361890000000 1.69430293000000 103.00000000000000 -1.86737373828112
0.84797738000000 1.70117844000000 103.00000000000000 -1.86739957821828
0.96446195000000 1.92505993000000  96.67766056000001 -1.86811270102589
1.09096235000000 1.68888476000000  59.89608213000000 -1.86629716063521
0.93479225000000 1.68888476000000  76.08930079000000 -1.86696279369028
0.96446195000000 1.73295471000000 118.49456410000001 -1.86742183727165
0.87524337000000 1.85475531000000 103.00000000000000 -1.86789839563642
1.19471953000000 1.68888476000000 117.19126835000000 -1.86738241028377
0.96446195000000 1.51634616000000  98.75516433000000 -1.86648233941241
0.96446195000000 1.53673810000000 110.96638235000000 -1.86650625757136
1.18828044000000 1.77081449000000 103.00000000000000 -1.86773458805408
0.96446195000000 1.56822583000000  73.78311990000000 -1.86618714903591
0.96446195000000 1.63187267000000 102.34918551000000 -1.86710983591297
0.96446195000000 1.58600449000000 109.13181784000000 -1.86681641734651
1.09780835000000 1.70672681000000 103.00000000000000 -1.86745725919241
1.04461365000000 1.77743891000000 103.00000000000000 -1.86769369270587
0.96446195000000 1.96240096000000 102.46064690000000 -1.86821580795925
1.00452502000000 1.68888476000000 110.96963456000000 -1.86730406231118
1.09888987000000 1.68888476000000 124.36842253000000 -1.86728526680213
1.04024066000000 1.66127760000000 103.00000000000000 -1.86724968966769
1.44655322000000 1.68195309000000 103.00000000000000 -1.86755186901939
0.96446195000000 1.52932738000000  92.74283651000000 -1.86657582968917
1.20445158000000 1.68888476000000 102.75297270000000 -1.86743614526767
0.96446195000000 1.67452329000000 102.62611898999999 -1.86729576220364
1.08172657000000 1.52051213000000 103.00000000000000 -1.86649068374243
0.96446195000000 1.78604378000000 116.37354800999999 -1.86763183070320
0.96446195000000 1.73055166000000 119.66873750000001 -1.86740569494179
0.96446195000000 1.77609634000000 110.00136829000000 -1.86763103707904
1.05383262000000 1.95621452000000 103.00000000000000 -1.86823199637729
0.98371373000000 1.86331139000000 103.00000000000000 -1.86794261581508
1.02507488000000 1.54028714000000 103.00000000000000 -1.86660790783560
1.10887389000000 1.68888476000000  68.92823516999999 -1.86676495686675
1.08152696000000 1.68888476000000 106.03090902000000 -1.86736329189091
0.88140468000000 1.66055778000000 103.00000000000000 -1.86723417131827
0.96446195000000 1.66212846000000 141.74112255000000 -1.86700126706785
1.00154365000000 1.68888476000000  88.48204079000000 -1.86736841282243
0.96446195000000 1.68880056000000 128.85731632000000 -1.86718661682755
0.90735530000000 1.74478330000000 103.00000000000000 -1.86755460627342
1.29751602000000 1.61109486000000 103.00000000000000 -1.86713491845148
1.02183922000000 1.68888476000000 136.38766763000001 -1.86719350931594
0.96446195000000 1.71200415000000  72.66406864000000 -1.86693960956427
0.84383160000000 1.73583738000000 103.00000000000000 -1.86752556493661
1.17594994000000 1.68888476000000 104.86069578000000 -1.86741436956800
0.96446195000000 1.73636046000000  79.18717203999999 -1.86733598325100
1.11429671000000 1.94468005000000 103.00000000000000 -1.86822643339849
0.96446195000000 1.57938412000000  90.81817221000000 -1.86686587122006
1.03818917000000 1.59228187000000 103.00000000000000 -1.86691416084011
0.96446195000000 1.64918894000000  59.73430300000000 -1.86603362001517
0.96446195000000 1.84510091000000 106.46530762000000 -1.86787264350562
0.78060785000000 1.89382411000000 103.00000000000000 -1.86801915014928
0.96446195000000 1.81052381000000  72.27832029000000 -1.86739278924404
1.06044084000000 1.68888476000000  80.52528286000000 -1.86724950952578
1.11038088000000 1.68888476000000  97.62412643000000 -1.86741206930094
1.04955943000000 1.68888476000000 133.00272154000001 -1.86722368669257
1.12261376000000 1.68888476000000  62.28822706000000 -1.86641890906810
0.98656616000000 1.68888476000000 139.63161557999999 -1.86715760452284
0.96446195000000 1.63298294000000  80.51265234000000 -1.86689410929569
0.87734865000000 1.68888476000000 113.54300191999999 -1.86726912780387
0.96446195000000 1.70750182000000  95.52124037999999 -1.86745540997777
0.96446195000000 1.71894771000000  83.46547319000000 -1.86738491638641
0.92588376000000 1.68888476000000 113.99550488000000 -1.86726627459814
1.03713820000000 1.68176541000000 103.00000000000000 -1.86733622650058
0.99497724000000 1.68888476000000 116.63948624000000 -1.86726364074843
0.99221450000000 1.80433629000000 103.00000000000000 -1.86776480013202
0.91956849000000 1.83397104000000 103.00000000000000 -1.86784079429799
1.07189898000000 1.68888476000000  89.61168237000000 -1.86740221977993
0.96446195000000 1.74497714000000  79.53035644000001 -1.86738288665993
0.95136196000000 1.68888476000000  60.14291241000000 -1.86619262506349
0.96446195000000 1.84546671000000  80.94312226000000 -1.86777965227725
0.96446195000000 1.97003364000000  90.34502268999999 -1.86821091661716
0.96446195000000 1.84915404000000 106.27453353000000 -1.86788574250750
0.87774720000000 1.68888476000000 112.72279263000000 -1.86727544919552
0.99718283000000 1.68888476000000  58.05275774000000 -1.86616255115996
0.96850555000000 1.64283311000000 103.00000000000000 -1.86715563470477
0.96446195000000 1.82187263000000  78.51623054000000 -1.86764841874117
0.95373825000000 1.77986304000000 103.00000000000000 -1.86767708730304
1.32622663000000 1.69460302000000 103.00000000000000 -1.86752969154793
0.96446195000000 1.61887339000000 112.41408896000000 -1.86696269292850
0.84968973000000 1.76072815000000 103.00000000000000 -1.86760946481343
1.02474412000000 1.94477476000000 103.00000000000000 -1.86818910843567
0.96446195000000 1.68190204000000  82.30417121000001 -1.86719782789260
1.20909114000000 1.68888476000000 110.97941963000000 -1.86741368833611
1.07092143000000 1.68888476000000  69.12629941000000 -1.86673584606206
0.89720792000000 1.58227534000000 103.00000000000000 -1.86685524774441
1.09602483000000 1.68888476000000 124.72654005000000 -1.86728197178411
1.20554706000000 1.68888476000000  95.08721688999999 -1.86745066605260
0.96446195000000 1.40986273000000 112.72121832000001 -1.86548145431539
1.16429794000000 1.78499438000000 103.00000000000000 -1.86777071788060
0.96446195000000 2.11022163000000  85.06601947000000 -1.86850437039482
1.05324011000000 1.66007393000000 103.00000000000000 -1.86724785585125
1.31832276000000 1.55126685000000 103.00000000000000 -1.86681686051929
0.96446195000000 1.74193353000000  85.94300398999999 -1.86751743012007
0.95341799000000 2.00893966000000 103.00000000000000 -1.86833481608551
0.96446195000000 1.77005331000000 121.85072882000000 -1.86754628074834
0.84254157000000 1.66364175000000 103.00000000000000 -1.86725061557024
1.24899587000000 1.68793827000000 103.00000000000000 -1.86745650168029
1.10880558000000 1.68888476000000  71.97857528000000 -1.86693565058647
0.96446195000000 1.81896323000000  79.86234232000000 -1.86767003262139
0.83495172000000 1.68888476000000 114.51381997999999 -1.86726688493741
0.91360438000000 1.68888476000000  84.29745443000000 -1.86724981073610
1.08630361000000 1.75190113000000 103.00000000000000 -1.86762132153467
0.95460688000000 1.68888476000000 105.33803371000000 -1.86733424516069
0.96446195000000 1.56409186000000 105.92626605000000 -1.86672075135914
0.96446195000000 1.66574042000000 129.09400209000000 -1.86708215757790
0.96446195000000 1.53898896000000  88.39560753000001 -1.86658340958502
1.19980568000000 1.87066895000000 103.00000000000000 -1.86805580731243
1.54436442000000 1.65582077000000 103.00000000000000 -1.86749974782128
0.83790300000000 1.69212330000000 103.00000000000000 -1.86736587736004
0.88127084000000 1.68888476000000  89.29797040000000 -1.86733294033820
1.20854771000000 1.68888476000000  88.61498563000001 -1.86744493892741
1.04594156000000 1.68888476000000 126.08294728000000 -1.86724202074743
0.97334869000000 1.68888476000000 125.57516431000001 -1.86720569594752
1.25824286000000 1.82157755000000 103.00000000000000 -1.86793619037644
0.87764237000000 1.68888476000000 107.49701803000001 -1.86731682793618
0.98214011000000 1.68888476000000  84.40610436999999 -1.86729448452763
0.83099766000000 1.90404126000000 103.00000000000000 -1.86803928968777
0.75731597000000 1.68888476000000 118.35405641000000 -1.86726088816317
1.11573811000000 1.70980930000000 103.00000000000000 -1.86747673445007
1.30935791000000 1.68888476000000  86.37384495000001 -1.86747071346258
0.86013407000000 1.68888476000000  85.04514593000000 -1.86723715981918
1.10143434000000 1.79956256000000 103.00000000000000 -1.86778968591466
1.28222941000000 1.68888476000000 103.53516181000001 -1.86747932197181
0.90402115000000 1.68888476000000 119.16220668000000 -1.86722811322045
0.88506124000000 1.68888476000000 108.71843042000000 -1.86730665956816
0.96446195000000 1.57091191000000  79.20196692000000 -1.86647203644316
0.96446195000000 1.87096749000000  94.99044652000001 -1.86796348252619
1.26953612000000 1.68888476000000  94.51502145000001 -1.86747663461006
0.92953400000000 1.94643442000000 103.00000000000000 -1.86816333629179
1.06386579000000 1.82650901000000 103.00000000000000 -1.86785977669331
0.96446195000000 1.57650367000000 103.58779219000000 -1.86681446219325
0.96585357000000 1.56968693000000 103.00000000000000 -1.86678120798831
1.10189533000000 1.68888476000000 100.12129280000001 -1.86740001500232
1.06670487000000 1.57068197000000 103.00000000000000 -1.86680027274963
1.09370903000000 1.64778125000000 103.00000000000000 -1.86720542121463
0.89015336000000 1.90043741000000 103.00000000000000 -1.86802977211187
1.30694386000000 1.51257259000000 103.00000000000000 -1.86655937160049
0.96446195000000 1.91930210000000  97.37656106000000 -1.86809801191293
0.85560633000000 1.54030268000000 103.00000000000000 -1.86661364474730
1.19564023000000 1.68888476000000 123.80736150000000 -1.86736636849275
1.10848280000000 1.75940265000000 103.00000000000000 -1.86765708442692
1.19890790000000 1.64587300000000 103.00000000000000 -1.86724435343069
1.22196343000000 1.68888476000000  77.35231272000000 -1.86728080985324
1.09741815000000 1.68888476000000 114.51303894999999 -1.86732581682827
0.96446195000000 1.72818070000000 144.01835342000001 -1.86730030625915
0.96446195000000 1.69019247000000 122.51137740999999 -1.86722406293916
1.05930012000000 1.68888476000000 124.34191075000000 -1.86725727292833
0.96446195000000 1.73805227000000  99.08558058000000 -1.86755450429575
1.05906546000000 1.68888476000000 107.31272853999999 -1.86734688955073
1.01143953000000 1.68888476000000  91.16999074000000 -1.86739036987694
0.84728973000000 1.68888476000000  71.81765965000000 -1.86666796358929
1.09469203000000 1.68888476000000 123.08464467000000 -1.86728648605106
0.96248277000000 1.95343934000000 103.00000000000000 -1.86819105885490
1.18977782000000 1.51906224000000 103.00000000000000 -1.86652746886921
0.87488681000000 1.67550658000000 103.00000000000000 -1.86729678991821
0.96446195000000 1.87167154000000 100.85155288000000 -1.86796510470299
0.96446195000000 1.91181299000000  97.60510533000000 -1.86807795647655
1.08513834000000 1.86714605000000 103.00000000000000 -1.86799251001685
1.10769901000000 1.81308031000000 103.00000000000000 -1.86783607998723
0.96446195000000 1.74905589000000  89.85520080000001 -1.86758348752289
1.32666918000000 1.68888476000000  87.90553018000000 -1.86748455520421
0.84136178000000 1.68888476000000  83.14187533000000 -1.86716911354165
1.04202770000000 1.91333973000000 103.00000000000000 -1.86810835372034
0.80759458000000 1.68888476000000 120.21257387999999 -1.86723168094454
1.16821239000000 1.68888476000000  84.51210608000000 -1.86739854397285
0.97222654000000 1.68888476000000 113.26162730000000 -1.86727929064648
0.96446195000000 1.80738903000000  73.33687184999999 -1.86742303626431
0.96446195000000 1.82937228000000 104.58624569000000 -1.86783040890384
1.04228098000000 1.68888476000000 114.19090690000000 -1.86729817747960
1.16196380000000 1.68888476000000 125.89395847000000 -1.86733298194451
0.96446195000000 1.64190051000000  65.61575915000000 -1.86620989522123
0.86998495000000 1.68888476000000  99.64728191000000 -1.86736868138223
0.96446195000000 1.66742103000000 106.26100245000001 -1.86723866426144
1.12329372000000 1.68888476000000  88.97995353000000 -1.86741682114859
0.96446195000000 1.87241752000000  92.71039564000000 -1.86796264539964
0.85174803000000 1.72305444000000 103.00000000000000 -1.86747978346580
1.07833096000000 2.03010774000000 103.00000000000000 -1.86843413303950
0.96446195000000 1.75151986000000 107.22515186000000 -1.86756045015807
0.98270969000000 1.68888476000000  55.07220166000000 -1.86606360833184
0.96446195000000 1.71314233000000  67.47194066000000 -1.86666179120891
0.93791510000000 1.72263815000000 103.00000000000000 -1.86747792772690
0.96446195000000 1.74653523000000  77.32299492999999 -1.86731412739914
0.96446195000000 1.61829040000000  86.43101772999999 -1.86700260849955
0.96446195000000 1.70052399000000 138.48637013999999 -1.86720124554461
1.12263222000000 1.91599775000000 103.00000000000000 -1.86815051799033
1.06196069000000 1.68888476000000 100.48939747000000 -1.86738590195318
0.96446195000000 1.65502998000000  99.50586244000000 -1.86723368505170
0.96446195000000 1.70278745000000 108.81795525000000 -1.86736632029192
0.96446195000000 1.61590463000000  90.50988961000000 -1.86705466004116
0.81335053000000 1.68888476000000  75.85590983000000 -1.86684702407877
1.12868629000000 1.68888476000000  88.14737823999999 -1.86741433343968
1.11328100000000 1.75389913000000 103.00000000000000 -1.86763976706527
0.76088120000000 1.57421729000000 103.00000000000000 -1.86682421353407
1.02427979000000 1.69367216000000 103.00000000000000 -1.86738147450865
0.95323920000000 1.68888476000000 130.01007458000001 -1.86717744436669
1.06939898000000 1.68888476000000 113.02190184000000 -1.86731821420381
1.24113868000000 1.68888476000000  92.98380285000000 -1.86746447443068
1.19356212000000 1.77806571000000 103.00000000000000 -1.86776197669030
0.75874094000000 1.73562793000000 103.00000000000000 -1.86753623773473
0.92118052000000 1.83629484000000 103.00000000000000 -1.86784799065583
0.96446195000000 1.52333449000000  83.26500565000001 -1.86632355943539
1.20210188000000 1.55640554000000 103.00000000000000 -1.86677275638635
0.96446195000000 1.66332821000000 106.58684237000000 -1.86721833770753
0.96446195000000 1.67751262000000  65.07571185000000 -1.86635716663864
0.96446195000000 1.58274031000000 136.87517631000000 -1.86658659687168
0.96446195000000 1.75629947000000  93.59112258000000 -1.86762209061305
0.83081465000000 1.72951793000000 103.00000000000000 -1.86750467370825
1.14988262000000 1.81463607000000 103.00000000000000 -1.86786052996649
1.05617626000000 1.89449357000000 103.00000000000000 -1.86806029167406
0.88261661000000 1.79231743000000 103.00000000000000 -1.86771019544256
0.96446195000000 1.84181835000000 125.56292558000000 -1.86779442871466
0.93028622000000 1.44791845000000 103.00000000000000 -1.86591680232550
1.47726584000000 1.68490912000000 103.00000000000000 -1.86758147192552
0.94382710000000 1.68888476000000 103.26907181000000 -1.86734806142863
1.45842044000000 1.58457748000000 103.00000000000000 -1.86710632238612
0.96446195000000 1.90468243000000  74.33673593000000 -1.86783391790334
0.96446195000000 1.72899713000000 106.42144632000000 -1.86748349146774
1.14452138000000 1.68888476000000  97.86082709999999 -1.86742290608868
1.15379119000000 1.68888476000000 104.40590561000000 -1.86740442673590
1.28488280000000 1.75316583000000 103.00000000000000 -1.86772481578976
0.71141396000000 1.76256557000000 103.00000000000000 -1.86764048386704
0.96446195000000 1.72306670000000 109.72556063000000 -1.86743938739107
0.80543774000000 1.68888476000000  97.86205031999999 -1.86737280151544
1.10625626000000 1.55216668000000 103.00000000000000 -1.86670239518605
1.01996096000000 1.48534347000000 103.00000000000000 -1.86622481741131
0.74792095000000 1.86714895000000 103.00000000000000 -1.86795312958566
0.96446195000000 1.69829993000000  73.76953220000000 -1.86692590450411
1.07343656000000 1.47239669000000 103.00000000000000 -1.86613602770183
1.09267797000000 1.68888476000000 132.81949476000000 -1.86725935845652
1.26678070000000 1.48629015000000 103.00000000000000 -1.86634333758911
1.17986171000000 1.68888476000000 127.87125109000000 -1.86734579577990
1.29173850000000 1.84181016000000 103.00000000000000 -1.86801478440123
1.19514679000000 1.74881132000000 103.00000000000000 -1.86766091378104
0.96446195000000 1.72355825000000  99.02784350000000 -1.86750390632903
0.96446195000000 1.63284822000000 131.52974909000000 -1.86691095206459
0.99875037000000 1.68888476000000 122.69170837000000 -1.86723072181724
0.96446195000000 1.77765698000000 110.28856276000000 -1.86763488201666
0.96446195000000 1.79127350000000 121.60909499000000 -1.86762604793716
1.03624830000000 1.79584290000000 103.00000000000000 -1.86775153986775
1.17009170000000 1.68612089000000 103.00000000000000 -1.86740622275522
0.99273860000000 1.68888476000000 115.38426620000000 -1.86727086297901
1.01655854000000 1.46837618000000 103.00000000000000 -1.86609146634066
0.96446195000000 1.77081793000000 123.32811751000000 -1.86754249937258
0.96446195000000 1.60766069000000  63.80148143000000 -1.86598410788577
1.04986770000000 1.40471485000000 103.00000000000000 -1.86553008229794
0.94416665000000 2.02401103000000 103.00000000000000 -1.86837042287868
1.04198618000000 1.62614999000000 103.00000000000000 -1.86708806410900
0.96446195000000 1.64410240000000  68.31708651000000 -1.86634721353062
0.96446195000000 1.84281086000000  71.26007156999999 -1.86749135757657
1.12219170000000 1.81763947000000 103.00000000000000 -1.86785714819939
1.13190548000000 1.94037593000000 103.00000000000000 -1.86822241955610
0.79633710000000 1.61386003000000 103.00000000000000 -1.86702962012441
0.96446195000000 1.89634363000000 114.25174619000001 -1.86800933816698
0.96446195000000 1.84448543000000  77.02923817999999 -1.86769133022040
0.96446195000000 1.57793828000000 108.37071361000000 -1.86677802310635
0.96446195000000 1.56516920000000  72.08588235000001 -1.86608685312922
0.96446195000000 2.09039881000000  87.50061005000001 -1.86847828003397
1.06921171000000 1.68888476000000 145.91467517000001 -1.86719728500293
1.11101581000000 1.82554245000000 103.00000000000000 -1.86787700973821
0.98128314000000 2.03696812000000 103.00000000000000 -1.86841403499329
1.11869325000000 1.68888476000000  82.08437139000000 -1.86733103026995
1.19749761000000 1.68137166000000 103.00000000000000 -1.86740044505530
1.17123137000000 1.54007766000000 103.00000000000000 -1.86665525526871
0.96446195000000 1.74355162000000 124.44902116999999 -1.86743252207259
0.96446195000000 1.82446708000000 107.66513664000000 -1.86780341526173
1.00317187000000 1.68888476000000 104.03323208000000 -1.86735088166631
0.89972453000000 1.82666589000000 103.00000000000000 -1.86781665663216
0.96446195000000 1.84638004000000  73.39419085000000 -1.86758782983338
0.91781922000000 1.77619822000000 103.00000000000000 -1.86766040985231
0.86508860000000 1.40056999000000 103.00000000000000 -1.86547398844937
1.11204216000000 1.86143867000000 103.00000000000000 -1.86798740250072
1.07896460000000 1.82824679000000 103.00000000000000 -1.86787146391964
1.17051460000000 1.68888476000000 128.07286690000001 -1.86733696958640
1.18365091000000 1.76894644000000 103.00000000000000 -1.86772582573758
0.96446195000000 1.70705381000000  91.67397994000000 -1.86744797348786
0.96446195000000 1.87136648000000 114.49063327000000 -1.86792893733673
0.87668594000000 1.68888476000000 104.93861683999999 -1.86733650380506
0.96446195000000 1.62493190000000 104.01424880000000 -1.86706312286549
0.96446195000000 1.69637308000000  85.49490689000000 -1.86733757622710
1.31621898000000 1.68888476000000  94.13376402000000 -1.86749669969868
1.38188282000000 1.55961941000000 103.00000000000000 -1.86691230611461
1.24413182000000 1.68888476000000 111.63474370000000 -1.86743640342161
0.96446195000000 1.79771528000000  73.11766201000000 -1.86737161745259
1.05485060000000 1.42551501000000 103.00000000000000 -1.86572986931048
0.96446195000000 1.89372673000000 101.98520024000000 -1.86802661283548
0.97797367000000 1.67278413000000 103.00000000000000 -1.86728735040708
0.96446195000000 1.52283414000000 101.94511987999999 -1.86650004617979
1.00540346000000 1.92284630000000 103.00000000000000 -1.86812104199112
0.90099346000000 1.69267000000000 103.00000000000000 -1.86736390814440
0.96446195000000 1.67112579000000  94.81236081999999 -1.86731663713874
1.09226830000000 1.68888476000000 104.51353899000000 -1.86737575971085
0.93883788000000 1.92961770000000 103.00000000000000 -1.86811940896109
0.96446195000000 1.82071889000000  99.51863650000000 -1.86781788337032
0.96446195000000 1.60574304000000 102.55102929000000 -1.86698038575435
0.99192657000000 1.68888476000000  90.80745724000001 -1.86738301025025
0.96446195000000 1.65474845000000  95.67536598000000 -1.86724786011303
0.96446195000000 1.64862796000000 124.96762015000000 -1.86702405020617
0.76187528000000 1.68888476000000  64.72812482000001 -1.86627493809499
0.97606009000000 1.73055422000000 103.00000000000000 -1.86751168697060
0.96446195000000 1.94067014000000  81.20851911000000 -1.86806528368413
1.07083683000000 1.68888476000000  97.90161885000001 -1.86739962506431
0.96446195000000 1.92921156000000 117.92091462000000 -1.86810729471040
0.96446195000000 1.65651281000000  95.90757142000000 -1.86725489132357
1.36352117000000 1.68888476000000 102.81440520000000 -1.86752948672620
1.07754552000000 1.68888476000000 111.97914349000000 -1.86732823656610
0.96446195000000 1.53601932000000  88.58016257000000 -1.86656736839223
0.87030010000000 1.68888476000000 109.48777649000000 -1.86730163025811
1.07030822000000 1.72549119000000 103.00000000000000 -1.86751887765763
0.87838159000000 1.62466075000000 103.00000000000000 -1.86707315960723
0.96446195000000 1.57348067000000  79.18256104000000 -1.86648749066114
1.00981251000000 1.68888476000000  93.75134251000000 -1.86739515202839
0.96446195000000 1.86417389000000  95.94948581000000 -1.86794560848568
1.43961231000000 1.79426042000000 103.00000000000000 -1.86794252256254
1.07503483000000 2.04029921000000 103.00000000000000 -1.86845783310253
1.06929095000000 1.62488030000000 103.00000000000000 -1.86708897085862
1.08395025000000 1.48250775000000 103.00000000000000 -1.86621787728745
0.84595900000000 1.94857979000000 103.00000000000000 -1.86816012246152
0.69428534000000 1.51511273000000 103.00000000000000 -1.86645899725295
0.96446195000000 1.72108496000000  99.58487088000000 -1.86749276935814
0.96446195000000 1.80711507000000 124.04118440000001 -1.86767422164064
0.88074000000000 1.68888476000000  77.51038728000000 -1.86697998010845
0.96446195000000 1.81967267000000 108.97705413000000 -1.86778244913239
0.97968284000000 1.68888476000000  64.51666924000000 -1.86639859841648
1.34057799000000 1.68888476000000 113.35669122000000 -1.86750466001058
0.96446195000000 1.68492681000000 125.29683009000000 -1.86718655373159
0.94490586000000 1.84532093000000 103.00000000000000 -1.86787916824881
0.99710915000000 1.68888476000000 113.12783254000000 -1.86728716669461
1.35842899000000 1.79603111000000 103.00000000000000 -1.86790736833382
0.84756893000000 2.01047779000000 103.00000000000000 -1.86832205123744
0.85853236000000 1.95137558000000 103.00000000000000 -1.86816761989371
1.07538337000000 1.68888476000000 109.63418827000000 -1.86734038780492
1.09537676000000 1.69633052000000 103.00000000000000 -1.86741489084568
1.21603243000000 1.68888476000000  90.08769393999999 -1.86745187433610
0.90434404000000 1.91472975000000 103.00000000000000 -1.86807141718248
0.96446195000000 1.45470390000000  91.77225149000000 -1.86599484629801
0.99736405000000 1.68888476000000  99.25041417000000 -1.86737802765879
0.96446195000000 1.81200248000000 116.58330850999999 -1.86772230319423
0.96446195000000 1.60581151000000 109.93103153000000 -1.86691587916926
0.91520422000000 1.76511090000000 103.00000000000000 -1.86762375856290
0.96446195000000 1.67656657000000 125.37334577000000 -1.86714943863137
0.86021947000000 1.76035853000000 103.00000000000000 -1.86760759752860
0.96446195000000 1.47473111000000 106.13228977000000 -1.86610683002095
0.96446195000000 1.68310914000000 146.00764680000000 -1.86708204701836
1.13418866000000 1.68397428000000 103.00000000000000 -1.86738030838114
0.75263968000000 1.68888476000000 105.28927932000001 -1.86735172099827
0.85199381000000 1.42609500000000 103.00000000000000 -1.86572679952906
0.96446195000000 1.64281739000000 105.08095489999999 -1.86713851200329
1.01517594000000 1.73580803000000 103.00000000000000 -1.86753945558212
0.96446195000000 1.79767753000000  98.38383370000000 -1.86774999846466
1.10781707000000 1.68888476000000  81.17609126000001 -1.86730271814758
0.98601212000000 1.68888476000000  60.45685441000000 -1.86623210620871
0.96722674000000 1.52519604000000 103.00000000000000 -1.86650565352352
1.00049905000000 1.68888476000000 116.12733162000001 -1.86726885052246
0.96446195000000 1.80742151000000 109.26794293000000 -1.86774099472098
1.33296931000000 1.68888476000000 120.81364847000000 -1.86748982836775
0.96446195000000 1.98469786000000 120.28203894000001 -1.86828076859547
0.82492968000000 1.68888476000000  57.40886525000000 -1.86602838278895
0.96446195000000 1.63245787000000 102.05290380000000 -1.86711489633819
1.18383877000000 1.78144680000000 103.00000000000000 -1.86776848119484
1.00139031000000 1.68888476000000 100.57532540000000 -1.86737173839913
0.96446195000000 1.84332838000000 115.06442815000000 -1.86783507692985
1.13885929000000 1.45793009000000 103.00000000000000 -1.86604481861582
1.02284717000000 1.68888476000000 126.72085855000000 -1.86722526294807
1.12565173000000 1.68888476000000 137.60331481000000 -1.86728063568648
0.84606889000000 1.68888476000000  94.03081616000000 -1.86736765808837
1.04615210000000 1.89833265000000 103.00000000000000 -1.86806723577899
1.36575140000000 1.70551991000000 103.00000000000000 -1.86759641167885
0.96446195000000 1.84669910000000  84.80335482000000 -1.86783886912065
0.95392093000000 1.68888476000000 132.32762170999999 -1.86716779578239
0.96446195000000 1.66710503000000 142.61174491000000 -1.86702168701493
1.03417786000000 1.77907257000000 103.00000000000000 -1.86769554280431
1.27305364000000 1.66459904000000 103.00000000000000 -1.86737164349245
0.89110223000000 1.70801486000000 103.00000000000000 -1.86742268550620
0.80062055000000 1.68888476000000  80.87269027000001 -1.86705880014370
1.11437647000000 1.58323618000000 103.00000000000000 -1.86688664940641
0.96446195000000 1.85500061000000 107.12777144000000 -1.86790095926995
0.96446195000000 1.78135198000000 102.74494163999999 -1.86768504494705
0.92506121000000 1.65991874000000 103.00000000000000 -1.86722974862380
1.09982466000000 1.68888476000000  74.38332874000000 -1.86704804305805
0.95912798000000 1.65829881000000 103.00000000000000 -1.86722380088179
0.93896650000000 1.54893387000000 103.00000000000000 -1.86665849515350
0.91541315000000 1.40227383000000 103.00000000000000 -1.86548790882136
1.06497035000000 1.68888476000000  94.10153047000000 -1.86740788201405
0.96446195000000 1.69232317000000  72.94635452000000 -1.86685220865149
0.96446195000000 1.60150654000000 105.22772653000000 -1.86693481825773
1.24605549000000 1.68888476000000 115.61109050000000 -1.86742698262367
0.96647664000000 1.53100496000000 103.00000000000000 -1.86654401625867
0.96446195000000 1.62339392000000  62.50196068000000 -1.86601183340997
0.94316985000000 1.68888476000000  92.10027520000000 -1.86737677099802
1.03159423000000 1.67264999000000 103.00000000000000 -1.86729659834555
0.85488350000000 1.68888476000000  93.14305997000000 -1.86736419277440
1.19738190000000 1.68888476000000  83.48554433000000 -1.86739945878833
0.93486317000000 1.50031958000000 103.00000000000000 -1.86633364993156
0.96446195000000 1.71949542000000  80.93395769999999 -1.86732012757238
1.01035393000000 1.68888476000000 112.65572844000000 -1.86729473727405
1.40189484000000 1.62826264000000 103.00000000000000 -1.86728913178763
0.96446195000000 1.86763045000000  89.42080912999999 -1.86793592265178
1.00676208000000 1.68888476000000 129.37760925000001 -1.86720590881032
0.96446195000000 1.55305747000000  93.30566181000000 -1.86672965972957
1.08697920000000 1.68888476000000 128.49620522999999 -1.86726428447128
1.01674206000000 1.68888476000000 112.46448493000000 -1.86729828296734
0.96446195000000 1.55968916000000 113.75164746999999 -1.86662744217415
0.97627840000000 1.68888476000000 111.03170369000000 -1.86729603080175
0.79809770000000 2.01120242000000 103.00000000000000 -1.86832854626391
0.96446195000000 1.79512913000000 101.15824046000000 -1.86773504720009
0.96446195000000 1.53636281000000 141.69069442000000 -1.86617578543519
0.94449436000000 1.93091039000000 103.00000000000000 -1.86812438308493
1.11592230000000 1.54500958000000 103.00000000000000 -1.86666166935049
1.02043844000000 1.75121647000000 103.00000000000000 -1.86759583806906
1.18410704000000 1.68888476000000  89.61765004000000 -1.86743985275189
0.93319431000000 1.68888476000000 117.92578256000000 -1.86723942370281
0.98032908000000 1.68888476000000  79.64591553000000 -1.86715420614223
1.04394915000000 1.68888476000000 110.94268889000000 -1.86731864544356
1.18968787000000 1.68325570000000 103.00000000000000 -1.86740424705363
1.15317255000000 1.68888476000000  74.53497178000001 -1.86710976952304
0.96319421000000 1.56059083000000 103.00000000000000 -1.86672815139184
0.87667291000000 1.76422950000000 103.00000000000000 -1.86761982241421
0.96446195000000 1.68154343000000  88.74472405000000 -1.86732767286060
0.96446195000000 1.63066048000000 125.32568030000000 -1.86693551276210
0.96446195000000 1.70557168000000  65.80814296000000 -1.86653256605371
1.14769214000000 1.68888476000000  72.89146168000001 -1.86702508697169
0.92140432000000 1.68888476000000 102.24265764000000 -1.86735404320962
1.02556826000000 1.68888476000000 115.59033174000000 -1.86728226978084
0.95327661000000 1.68888476000000 123.77443298999999 -1.86720807807080
0.96446195000000 1.91844103000000 107.31046007000000 -1.86808984830009
1.50591122000000 1.72228127000000 103.00000000000000 -1.86773706494716
1.37307429000000 1.68888476000000  88.94113590000001 -1.86750654106845
1.21921077000000 1.67810273000000 103.00000000000000 -1.86739843668192
0.96446195000000 1.72755482000000  83.47899843000000 -1.86741889023631
1.12108523000000 1.49802330000000 103.00000000000000 -1.86634691642826
0.79917827000000 1.68888476000000 121.68116365000000 -1.86722404699822
0.96446195000000 1.71906202000000  82.60489858000000 -1.86736460014981
0.96446195000000 1.60934291000000 108.70604081000000 -1.86694457704812
0.93115658000000 1.94383492000000 103.00000000000000 -1.86815662421475
1.11887191000000 1.68888476000000 104.93100989000000 -1.86738528438605
0.96446195000000 1.96574379000000 117.25920137999999 -1.86822182768310
0.96446195000000 1.82988144000000 115.77904667999999 -1.86778710453007
1.07096888000000 1.69376197000000 103.00000000000000 -1.86739561317881
0.94588371000000 2.07854971000000 103.00000000000000 -1.86850254258695
0.93499171000000 1.68888476000000 133.33061556000001 -1.86715599495085
0.94237899000000 1.68888476000000 102.47775987000000 -1.86735329673013
0.96446195000000 1.53562755000000  69.58196697000000 -1.86580931428114
0.77498423000000 1.76996633000000 103.00000000000000 -1.86764953288468
0.98880136000000 1.68888476000000 121.20725806999999 -1.86723437792239
1.14472410000000 1.90791563000000 103.00000000000000 -1.86813765298507
1.19327599000000 1.68888476000000  87.70666066000000 -1.86743547602987
0.87684058000000 1.83875920000000 103.00000000000000 -1.86785152235973
1.34477260000000 1.68888476000000  85.35653762000000 -1.86747764475126
0.96446195000000 1.90291766000000  93.95378052000000 -1.86804867063972
1.20241703000000 1.68888476000000 104.97663274999999 -1.86742880618124
0.98652520000000 1.68888476000000 103.23420719000001 -1.86735306883656
0.96446195000000 1.78082906000000  79.61505452000000 -1.86752630979493
0.96446195000000 1.74219430000000 120.62012036000000 -1.86744605747754
1.01607572000000 1.68888476000000 143.01072307999999 -1.86716534548964
0.96446195000000 1.62871961000000 103.51542851000001 -1.86708547623857
1.24983844000000 1.85088733000000 103.00000000000000 -1.86802135977405
0.96446195000000 1.81555383000000 111.55056974000000 -1.86775737868265
0.96446195000000 1.71215237000000  69.35719183000000 -1.86676155660916
0.88925459000000 1.82358806000000 103.00000000000000 -1.86780668693268
0.96446195000000 1.61304655000000 106.85459640000001 -1.86697961266759
1.05770549000000 1.66494307000000 103.00000000000000 -1.86727047422266
0.94511761000000 1.89866075000000 103.00000000000000 -1.86803426390418
1.09607060000000 1.68888476000000 111.34736839000000 -1.86734144357229
0.87974565000000 1.68888476000000  92.91708328000000 -1.86736763542922
1.03696781000000 1.86089997000000 103.00000000000000 -1.86795402134226
0.99209886000000 1.72401822000000 103.00000000000000 -1.86749087270880
0.77264823000000 1.71386024000000 103.00000000000000 -1.86745568839774
0.96446195000000 1.55257385000000 113.30549490999999 -1.86658761723754
0.95482203000000 1.68888476000000  97.76307978000000 -1.86737910842805
1.13885786000000 1.59889071000000 103.00000000000000 -1.86698167793577
1.01536137000000 1.68888476000000  82.14339056000000 -1.86726126393251
0.97067090000000 1.54968566000000 103.00000000000000 -1.86666243872071
0.96446195000000 1.76097255000000 108.01690591000001 -1.86758932005978
0.91074594000000 2.15838245000000 103.00000000000000 -1.86866449043157
0.96446195000000 1.96460357000000  89.80227257999999 -1.86819463312213
1.15621431000000 1.68888476000000 112.00045894000000 -1.86737433908968
0.96446195000000 1.96003073000000 109.20973479000000 -1.86820750012612
1.03720481000000 1.68888476000000 106.45698865999999 -1.86734428457839
1.12082166000000 1.68888476000000 131.73004177000001 -1.86728620603230
1.07151823000000 1.68888476000000 116.81302300000000 -1.86729886159924
0.96727704000000 1.68888476000000 107.60811506000000 -1.86731922384013
1.27095340000000 1.58835318000000 103.00000000000000 -1.86699791251328
1.26726137000000 1.50474271000000 103.00000000000000 -1.86647714641344
0.97136730000000 1.69167377000000 103.00000000000000 -1.86736358701125
1.02265994000000 1.68738545000000 103.00000000000000 -1.86735568975746
0.90597806000000 1.72757044000000 103.00000000000000 -1.86749412813401
1.29890613000000 1.68888476000000  94.43393424000000 -1.86748934284947
0.96446195000000 1.92307453000000 127.02887579999999 -1.86807563456819
1.03266585000000 1.47623876000000 103.00000000000000 -1.86615653383546
0.90846194000000 1.82312899000000 103.00000000000000 -1.86780675621344
0.84343658000000 1.68888476000000  79.71015523000000 -1.86704427962604
0.92621603000000 1.78202779000000 103.00000000000000 -1.86768015486916
1.04000735000000 1.65461038000000 103.00000000000000 -1.86722012299015
0.94691390000000 1.68888476000000  87.62438954000000 -1.86733512827198
0.75786127000000 1.68888476000000  82.87953661000000 -1.86710484364073
0.96446195000000 1.47319932000000 106.20318913000000 -1.86609397223913
1.07470788000000 1.53467206000000 103.00000000000000 -1.86658235204823
1.04318243000000 1.68026202000000 103.00000000000000 -1.86733160581366
0.96446195000000 1.70665305000000  74.29842422999999 -1.86699498475662
0.69936740000000 1.86608102000000 103.00000000000000 -1.86797177517803
0.94174007000000 1.68888476000000  63.08564651000000 -1.86630035167411
1.15683888000000 1.68888476000000  93.59447023000000 -1.86743481386634
0.80487194000000 1.68888476000000  94.84817685000000 -1.86736540662446
1.39572381000000 1.68888476000000  88.97217623000000 -1.86751571757361
0.96022601000000 1.68888476000000  67.25852232000000 -1.86652103073732
0.96446195000000 1.54268451000000  75.73616375000000 -1.86611800360981
1.00849721000000 1.68888476000000 127.60880215000000 -1.86721357009696
1.45626246000000 1.78657058000000 103.00000000000000 -1.86792654365877
1.08037716000000 1.68888476000000  74.76205314000001 -1.86704579763295
0.96446195000000 1.68955214000000 105.61393407000000 -1.86733609245118
1.13939518000000 1.68733424000000 103.00000000000000 -1.86739663785534
0.87627810000000 1.68888476000000  71.48291368000000 -1.86667368773999
0.96911792000000 1.61949176000000 103.00000000000000 -1.86704545466569
0.82641159000000 1.68888476000000 101.61780215000000 -1.86736200334860
0.76950934000000 1.83234394000000 103.00000000000000 -1.86784475200022
1.10387384000000 1.68888476000000 101.23301892000001 -1.86739594491223
1.50510886000000 1.68888476000000 102.00286348000000 -1.86761072547984
1.17243041000000 1.51213470000000 103.00000000000000 -1.86647077542614
1.12013433000000 1.68888476000000  65.11573706000000 -1.86655959997745
1.02888726000000 1.86334967000000 103.00000000000000 -1.86795823282284
0.96446195000000 1.60331560000000 119.33608275000000 -1.86683364703367
0.93393520000000 1.68888476000000 105.46329382000000 -1.86733174816925
1.04336812000000 1.68888476000000 106.72471056000001 -1.86734468018221
1.08441409000000 1.68888476000000 112.70162295999999 -1.86732789219627
0.97065214000000 1.68888476000000 139.47027281000001 -1.86714803615803
0.96446195000000 1.78156807000000  66.64786601000000 -1.86696633424947
0.96446195000000 1.61275038000000  90.39618367000000 -1.86703791935929
0.84694522000000 1.81194650000000 103.00000000000000 -1.86777170686389
1.12495839000000 1.68888476000000 119.66684979999999 -1.86732108367323
0.96446195000000 1.89628457000000  82.07746371000000 -1.86795072456516
0.96446195000000 1.82457319000000  69.17641055999999 -1.86731421901106
0.90109352000000 1.86271801000000 103.00000000000000 -1.86792333115420
0.92929929000000 1.77785922000000 103.00000000000000 -1.86766698209044
0.87485489000000 1.62219506000000 103.00000000000000 -1.86706174265362
1.12230376000000 1.68888476000000 116.82021688000000 -1.86733085087985
0.96446195000000 1.58448047000000 107.22510930999999 -1.86682503118459
0.92027400000000 1.68888476000000  76.71691908000000 -1.86697869143018
0.96446195000000 1.53689144000000 110.05898963999999 -1.86651485710490
0.96446195000000 1.44144316000000  90.88648966000000 -1.86586352688028
0.96446195000000 1.55888169000000  83.45372802000000 -1.86657298878060
0.96446195000000 1.88437792000000 120.97290897000001 -1.86795485509197
1.11095595000000 1.68888476000000 100.58724189000000 -1.86740127089922
1.14389312000000 1.62726960000000 103.00000000000000 -1.86712845031116
0.90671681000000 1.68888476000000  90.39136207999999 -1.86735455213011
0.81515367000000 2.06834225000000 103.00000000000000 -1.86846551709709
0.94284108000000 1.84324207000000 103.00000000000000 -1.86787253496971
0.84297861000000 1.68888476000000  75.99014433000001 -1.86687690322753
1.08354908000000 1.68888476000000  82.48738871000000 -1.86731690612589
1.04227140000000 1.68888476000000 110.46425553000000 -1.86732092219802
0.96446195000000 1.85490990000000 121.55825722000000 -1.86785250360606
0.96446195000000 1.89991301000000  79.31183765000000 -1.86792146263724
0.98629636000000 1.86312484000000 103.00000000000000 -1.86794285809424
0.96446195000000 1.65196198000000 111.26944549000000 -1.86713047135709
0.76007599000000 1.58645038000000 103.00000000000000 -1.86689139286648
1.45962492000000 1.68888476000000 107.89199102000001 -1.86759077246666
0.77848603000000 1.68888476000000  82.02075596000000 -1.86708713509563
0.96446195000000 1.52334922000000 117.06704525000001 -1.86637511558695
0.96446195000000 2.02393740000000 110.16619793000000 -1.86838451130927
1.03356114000000 1.68888476000000 123.08881782000000 -1.86724660582081
0.86382871000000 1.68888476000000  59.90174190000000 -1.86612322750193
0.95672846000000 1.68888476000000  99.85713991000000 -1.86736994924377
1.07280415000000 1.68888476000000 134.98661102000000 -1.86723772468201
1.11661381000000 1.63276254000000 103.00000000000000 -1.86714351903333
0.86417569000000 1.68888476000000  78.78089704000000 -1.86702194933378
1.12984907000000 1.68888476000000 102.16271266000000 -1.86740223244226
0.85190537000000 1.84657906000000 103.00000000000000 -1.86787463433654
0.97889994000000 1.66125905000000 103.00000000000000 -1.86723839613626
1.05886613000000 1.68888476000000 116.88698588000000 -1.86729135820133
1.12035697000000 1.68888476000000 138.55360317000000 -1.86727348309512
1.05701968000000 1.68888476000000  79.16015136000000 -1.86720301866035
0.96446195000000 1.58489352000000  97.51730382000000 -1.86690728230917
0.96446195000000 1.60676990000000 112.80595432000000 -1.86689770248506
0.96446195000000 1.62505402000000  88.16948632000000 -1.86706951206463
0.96446195000000 1.69162122000000  94.16830822000000 -1.86739679684445
0.97459378000000 1.59855021000000 103.00000000000000 -1.86693973248305
0.96446195000000 1.50669661000000  89.86901997000000 -1.86638535678014
0.96446195000000 1.72543984000000  86.00095123000000 -1.86745867768047
1.17578122000000 1.68888476000000 108.16241459000000 -1.86740219065291
0.96446195000000 2.11705297000000 119.64900912000000 -1.86864954690952
0.77558451000000 1.52788730000000 103.00000000000000 -1.86654220014054
0.90693426000000 1.68888476000000  70.80200327000000 -1.86666381310920
0.93420461000000 1.96803424000000 103.00000000000000 -1.86822264590603
1.18599234000000 1.68888476000000  88.56169923000000 -1.86743685438842
1.11895928000000 1.68888476000000 109.45227487000000 -1.86736360422492
0.96446195000000 1.84305256000000 107.51475968000000 -1.86786265724982
1.26174438000000 1.68888476000000  86.76963705000000 -1.86745543516213
1.22856621000000 1.68888476000000 103.97135618000000 -1.86744658384748
0.82259337000000 1.66232286000000 103.00000000000000 -1.86724715985895
1.30376103000000 1.68888476000000 107.06101086000000 -1.86748818654576
0.87739189000000 1.68888476000000 118.72840925000000 -1.86723102480619
0.91678623000000 1.84001064000000 103.00000000000000 -1.86785848075772
0.97801891000000 1.59218320000000 103.00000000000000 -1.86690622674200
0.99509817000000 1.68888476000000 100.17259623000000 -1.86737291847749
1.18059827000000 1.68888476000000 117.41735950000000 -1.86737080980117
1.15279327000000 1.68888476000000  87.63276637000000 -1.86742016570861
0.95425022000000 1.68888476000000 112.85660202000000 -1.86727842543780
0.96446195000000 1.63768356000000  96.21693572000000 -1.86717207058336
0.96446195000000 1.87099651000000  67.14424388000000 -1.86743103603385
1.02490015000000 1.68888476000000  92.49648331000000 -1.86739765489006
0.91124580000000 2.03098685000000 103.00000000000000 -1.86838008601194
1.25529517000000 1.67551007000000 103.00000000000000 -1.86740810373703
0.76543747000000 1.68888476000000 100.58863205000000 -1.86736987266613
0.96446195000000 1.78666594000000  95.31063712000000 -1.86771898013433
1.08550027000000 1.87045588000000 103.00000000000000 -1.86800248925454
0.96446195000000 1.71174714000000 111.70067383999999 -1.86738177050813
0.96446195000000 1.74379475000000  91.62528484000001 -1.86757568706309
1.20915250000000 1.68888476000000 120.96452947000000 -1.86738381508280
0.81261257000000 1.68888476000000  89.59251454000000 -1.86731151897197
0.86406648000000 1.68888476000000 105.76379093000000 -1.86733141841250
0.96446195000000 1.61450277000000 148.82872237999999 -1.86663934312787
0.96446195000000 2.05574881000000  85.62376487000000 -1.86839046165892
1.12156044000000 1.68888476000000 116.59925373999999 -1.86733131376241
0.96446195000000 1.52426393000000 135.39196279000001 -1.86620931728498
0.96446195000000 1.86599177000000 116.77929995000000 -1.86790445674387
1.22493945000000 1.63810023000000 103.00000000000000 -1.86722244470434
0.96446195000000 1.77379548000000 102.94780774000000 -1.86765933982008
0.96960702000000 1.68888476000000  95.77772521999999 -1.86738620858193
0.87502314000000 1.86577703000000 103.00000000000000 -1.86793028560623
0.92133715000000 1.93436674000000 103.00000000000000 -1.86812861607120
1.18502034000000 1.68888476000000 123.25440441000001 -1.86735828481653
0.98085246000000 1.68888476000000 122.83715352000000 -1.86722248348008
0.67180133000000 1.85122098000000 103.00000000000000 -1.86794472279598
0.98584484000000 1.84707058000000 103.00000000000000 -1.86789488550119
1.27219162000000 1.62236045000000 103.00000000000000 -1.86717495500238
0.96446195000000 1.63224845000000 132.36841777000001 -1.86690300646683
0.86820208000000 1.68888476000000  83.76500024000001 -1.86720623292149
1.02129787000000 1.83928120000000 103.00000000000000 -1.86788294130486
0.96446195000000 1.68387036000000  80.90297008000000 -1.86716206409631
0.94065473000000 1.68888476000000  92.06321299000000 -1.86737600438039
1.00127265000000 1.89871780000000 103.00000000000000 -1.86805128513549
0.75598297000000 1.69491812000000 103.00000000000000 -1.86738634697190
0.90287608000000 1.68888476000000  77.43607734000000 -1.86699586096881
0.96959117000000 1.68888476000000  71.86117621000000 -1.86678134428450
1.09826226000000 1.68888476000000  78.53177583000000 -1.86721711612859
1.21118350000000 1.68888476000000  89.41401571999999 -1.86744849924435
0.96446195000000 1.52081161000000  95.01557515000000 -1.86652576387291
1.14304843000000 1.60327537000000 103.00000000000000 -1.86700664599482
0.96446195000000 1.51255057000000  84.99240119000000 -1.86630661043466
1.00337205000000 1.68888476000000 109.04534774000000 -1.86731687503720
0.73999588000000 1.66344806000000 103.00000000000000 -1.86726042024623
0.93375333000000 1.68888476000000 104.27536889000000 -1.86734043927106
1.01185935000000 1.68888476000000 103.86498014999999 -1.86735385942063
0.87464887000000 1.68888476000000 125.59283800999999 -1.86718644751465
1.08392023000000 1.89493029000000 103.00000000000000 -1.86807333039394
0.96446195000000 1.48633704000000 117.85872672000001 -1.86610830123573
1.34200501000000 1.77029003000000 103.00000000000000 -1.86781490355133
1.00722092000000 1.68888476000000  91.98235406000001 -1.86739203016521
0.96446195000000 1.88585139000000  93.84222269000000 -1.86800225808929
0.90851981000000 1.68888476000000 101.73244098000001 -1.86735717371755
0.95769560000000 1.64217818000000 103.00000000000000 -1.86715201026152
0.86992808000000 1.81103122000000 103.00000000000000 -1.86776813842550
0.98730720000000 1.71620594000000 103.00000000000000 -1.86746083618596
0.84553558000000 1.48133307000000 103.00000000000000 -1.86620156595893
0.99989552000000 1.79418725000000 103.00000000000000 -1.86773445155245
1.36398088000000 1.79626156000000 103.00000000000000 -1.86791095611727
0.96446195000000 1.59952821000000  61.95324706000000 -1.86589541873207
1.11752948000000 1.68888476000000  99.71053302000000 -1.86740710868719
0.96792308000000 1.73298976000000 103.00000000000000 -1.86751909110183
1.32235763000000 1.68888476000000 114.60996394999999 -1.86748878485844
1.04923028000000 1.68888476000000  60.92840141000000 -1.86630237781299
0.91238949000000 1.75391367000000 103.00000000000000 -1.86758603725843
1.09838701000000 1.68888476000000 105.56732001000000 -1.86737294887962
0.91182675000000 1.68888476000000 108.48894405999999 -1.86730782936627
0.96446195000000 1.55895387000000 130.83181943000000 -1.86650183487654
1.01313701000000 1.68888476000000  62.35207875000000 -1.86632942892516
1.07241727000000 1.50563232000000 103.00000000000000 -1.86638488108883
0.96446195000000 1.49475932000000 117.72809281000001 -1.86617143760418
0.96446195000000 1.93681021000000  96.50271794000000 -1.86814366833755
0.96446195000000 1.93183549000000 111.72876058999999 -1.86812296016990
0.94172402000000 1.55343308000000 103.00000000000000 -1.86668580556216
1.08497572000000 1.68671760000000 103.00000000000000 -1.86737175758651
1.12118055000000 1.68888476000000 105.74280499000000 -1.86738259070376
0.96446195000000 1.56565330000000 120.86183876000000 -1.86661542782599
1.11744255000000 1.68888476000000  94.45630005000000 -1.86742175425206
0.76192287000000 1.68888476000000  74.73231732000001 -1.86675779560085
0.92790283000000 1.68888476000000  96.19176163000000 -1.86738049411360
0.96446195000000 1.72386078000000 109.11337387000000 -1.86744652904167
0.96446195000000 1.88832267000000 118.45403142000001 -1.86797380024177
1.17498739000000 1.68888476000000 119.80111626999999 -1.86735886241286
0.96446195000000 1.70525709000000  83.78561994000000 -1.86733731438960
0.83754513000000 1.75589445000000 103.00000000000000 -1.86759441248842
0.88544233000000 1.68565017000000 103.00000000000000 -1.86733686988623
1.16604877000000 1.82873965000000 103.00000000000000 -1.86791273154665
0.96446195000000 1.89766285000000  71.84703703000000 -1.86773630684547
1.00035132000000 1.74429044000000 103.00000000000000 -1.86756602144749
1.09389912000000 1.68888476000000 109.73458470000000 -1.86734888923024
0.96446195000000 1.72699560000000  90.68848994000000 -1.86751388359266
1.03966023000000 1.89910679000000 103.00000000000000 -1.86806684669864
1.03022504000000 1.65578239000000 103.00000000000000 -1.86722304034731
1.16050217000000 1.68888476000000  82.36782134000001 -1.86736223241496
0.96446195000000 1.68981975000000 118.95491559000000 -1.86724342319349
0.96446195000000 1.64561350000000  96.94627654999999 -1.86720501518255
0.96446195000000 1.91296777000000 108.98453895999999 -1.86807103187357
1.23630111000000 1.68888476000000  83.15131384999999 -1.86741366961405
0.96446195000000 1.63252495000000 104.67247046999999 -1.86709387608767
0.99230170000000 1.68074613000000 103.00000000000000 -1.86732243841936
0.96446195000000 1.79666202000000 103.46617042000000 -1.86773162774273
0.96446195000000 1.89619627000000  95.00229985999999 -1.86803262855346
0.88557390000000 1.68888476000000 112.27824090999999 -1.86727847671966
0.96446195000000 1.53369969000000 145.41389104000001 -1.86605833117176
0.86839787000000 1.68888476000000  72.92960819000000 -1.86674354529873
1.03003655000000 1.68888476000000  74.14216648000000 -1.86696320954661
1.22344462000000 1.68888476000000  84.69257313000000 -1.86742512609146
0.90457625000000 1.68888476000000  73.06789142000000 -1.86678275766792
1.10465414000000 1.79888724000000 103.00000000000000 -1.86778889630102
1.04325858000000 1.55562823000000 103.00000000000000 -1.86670603814014
0.96135897000000 1.68888476000000  77.75978191000000 -1.86706273231425
0.96446195000000 1.91202517000000 115.74139980000000 -1.86805590096446
0.96446195000000 1.78205672000000  72.41842479000000 -1.86726977773822
0.96446195000000 1.97543082000000 102.66338502000001 -1.86825058250565
0.96446195000000 1.91695567000000  77.47076962000000 -1.86794183324685
1.17407682000000 1.68888476000000 107.64989790000000 -1.86740311645087
0.96446195000000 2.01215646000000 100.92184482000000 -1.86834387961335
0.96446195000000 1.69240169000000 110.63783209000000 -1.86731102792044
0.96446195000000 1.49169231000000  72.85968224000000 -1.86564666728520
0.75978926000000 1.68888476000000 131.03597016000001 -1.86717630525413
0.93818206000000 1.68888476000000 127.83948097000000 -1.86718258810470
0.96446195000000 1.61813367000000  76.16556308000000 -1.86661077557335
0.96446195000000 1.60200273000000  89.25112665000000 -1.86696935146824
0.91132441000000 1.68888476000000 118.80163294000000 -1.86723102199539
0.96446195000000 1.95088497000000 113.06796911000001 -1.86817853692787
0.99441746000000 1.82753201000000 103.00000000000000 -1.86783801915863
0.96467324000000 1.84100847000000 103.00000000000000 -1.86787080383624
0.96446195000000 1.49759970000000 120.92531422000000 -1.86617338783117
1.35309919000000 1.68888476000000 110.41549142000000 -1.86751783864167
0.94095704000000 1.85001023000000 103.00000000000000 -1.86789230155148
0.91398437000000 1.54964800000000 103.00000000000000 -1.86666471348292
1.20355814000000 1.68888476000000 107.46920015000001 -1.86742172056347
0.80952860000000 1.68888476000000  96.74735544000001 -1.86737217880898
0.78533891000000 1.93461141000000 103.00000000000000 -1.86813030842677
1.32720672000000 1.75391715000000 103.00000000000000 -1.86775100184229
0.89456167000000 1.68888476000000  85.84665104000000 -1.86727628252652
0.91602505000000 1.81284541000000 103.00000000000000 -1.86777614225832
1.14672122000000 1.74840861000000 103.00000000000000 -1.86763542986284
0.96446195000000 1.60659091000000 105.99673713999999 -1.86695425774644
0.98579237000000 1.68914685000000 103.00000000000000 -1.86735553839424
0.96446195000000 1.66822281000000  81.78918733000000 -1.86711847141623
1.04735270000000 1.60333163000000 103.00000000000000 -1.86697457566822
0.96446195000000 1.77226157000000 121.78786325000000 -1.86755485520098
1.31526220000000 1.67806437000000 103.00000000000000 -1.86745526002983
0.98189715000000 1.45903966000000 103.00000000000000 -1.86601152850119
1.17617841000000 1.56884568000000 103.00000000000000 -1.86683241442779
0.96446195000000 1.95667404000000 117.18379890000000 -1.86819395898715
1.30850105000000 1.68888476000000  83.37320011000000 -1.86744757850681
0.84774977000000 1.65919206000000 103.00000000000000 -1.86723128782978
1.00168877000000 1.68888476000000 105.41423675999999 -1.86734135657139
1.26501168000000 1.79124570000000 103.00000000000000 -1.86784297906900
0.97333400000000 1.69541002000000 103.00000000000000 -1.86737862581515
1.19317272000000 1.68888476000000  93.84564619000000 -1.86744693437379
1.12239768000000 1.68888476000000 125.01500660000001 -1.86730171346392
1.04977444000000 1.68888476000000 104.76584733000000 -1.86735874739645
0.94118927000000 1.45777200000000 103.00000000000000 -1.86600057278758
1.07644675000000 1.68888476000000 120.15496969000000 -1.86728576609562
0.96446195000000 1.88900679000000 114.29995362000000 -1.86798598045914
0.96446195000000 1.58188034000000  89.35216769000000 -1.86686172276814
0.94579852000000 2.08262760000000 103.00000000000000 -1.86851190044263
0.82991225000000 1.47246849000000 103.00000000000000 -1.86613371669716
1.23585263000000 1.68888476000000 117.68864741000000 -1.86741361383838
1.12424231000000 1.68888476000000  81.04619877000000 -1.86731105510967
0.98388256000000 1.51546862000000 103.00000000000000 -1.86644000840897
1.06198659000000 1.68888476000000  94.60758210000000 -1.86740649865112
0.96446195000000 1.83473005000000  73.12376800000000 -1.86753053828966
1.29075279000000 1.67829701000000 103.00000000000000 -1.86744117822082
1.01660048000000 1.82314303000000 103.00000000000000 -1.86783155459875
1.04459056000000 1.68888476000000 132.85989280000001 -1.86722029308760
0.96446195000000 1.62022623000000  67.91686399000000 -1.86620321168471
0.77284784000000 1.68888476000000  64.19991572000001 -1.86625416965535
1.05163678000000 1.68888476000000  79.59276147000000 -1.86721303295894
1.04835337000000 1.56617826000000 103.00000000000000 -1.86676979325716
0.98941726000000 1.72521351000000 103.00000000000000 -1.86749472962833
0.80749115000000 1.68888476000000 107.63857358999999 -1.86732538035540
1.09726778000000 1.48389772000000 103.00000000000000 -1.86623294954939
0.96446195000000 1.76657463000000  83.17988065999999 -1.86755688552375
1.29508116000000 1.68888476000000 100.64422256000000 -1.86748926906398
0.96446195000000 1.68989521000000 112.17670446000000 -1.86728949666792
1.03122837000000 1.63605184000000 103.00000000000000 -1.86713303120325
0.87874869000000 1.68888476000000 110.15646088000000 -1.86729561678783
1.02719462000000 1.62623725000000 103.00000000000000 -1.86708536838341
0.93723189000000 1.68888476000000  99.64225372000000 -1.86736964183456
0.82171817000000 1.68888476000000 102.85787832000000 -1.86735580394566
1.07102379000000 1.68888476000000 103.19508389000001 -1.86737473652124
0.86016110000000 1.83314900000000 103.00000000000000 -1.86783484621731
1.25271503000000 1.68888476000000 118.98844735000000 -1.86742454199521
1.00894941000000 1.68888476000000 120.91634861000000 -1.86724455610613
0.96446195000000 1.80986763000000  60.24135026000000 -1.86674361570431
0.75040520000000 1.68888476000000 128.61010311000001 -1.86719718937729
0.93521320000000 1.85813475000000 103.00000000000000 -1.86791513838273
1.04253441000000 1.85677346000000 103.00000000000000 -1.86794384126574
1.48993351000000 1.71596573000000 103.00000000000000 -1.86770606949653
0.90760897000000 1.68888476000000  75.67570083000000 -1.86691776047110
1.09438999000000 1.65601223000000 103.00000000000000 -1.86724303131064
0.70890453000000 1.70049869000000 103.00000000000000 -1.86741558825474
1.07607388000000 1.87397928000000 103.00000000000000 -1.86800883747765
0.96446195000000 1.44497730000000  97.79450595000000 -1.86592965114176
1.19286713000000 1.68888476000000 124.37839812000000 -1.86736289611781
0.96446195000000 1.74031810000000 100.24843084000000 -1.86755781607133
0.92593240000000 1.71922596000000 103.00000000000000 -1.86746462790006
0.96446195000000 1.63797420000000 102.32357664000000 -1.86713839146853
1.36833496000000 1.68888476000000  93.06005660000000 -1.86751807761368
1.20524222000000 1.68888476000000 114.79060712000000 -1.86739815432725
1.13138896000000 1.68888476000000  90.68344775000000 -1.86742518215431
1.07231703000000 1.67530163000000 103.00000000000000 -1.86731957471056
0.96446195000000 1.98786167000000 114.70812736000001 -1.86828749849280
1.05617353000000 1.62109526000000 103.00000000000000 -1.86706676656502
0.84997923000000 1.84865473000000 103.00000000000000 -1.86788076861035
0.96446195000000 1.71441264000000 109.01876489000000 -1.86741075656232
0.96446195000000 1.59873740000000  70.11119707000000 -1.86618919400951
0.96446195000000 1.85495223000000 106.21417456000000 -1.86790366145078
1.11741536000000 1.49729371000000 103.00000000000000 -1.86634013886044
0.94083078000000 1.68888476000000 116.63453350000000 -1.86724941145576
0.96446195000000 1.92860130000000  92.72863553000001 -1.86811348870572
0.71782412000000 1.68888476000000 102.40301027000000 -1.86736976589134
0.75811882000000 1.68888476000000 128.72753872999999 -1.86719276483223
0.87789084000000 1.73665645000000  96.96454472000001 -1.86754768967580
1.18044344000000 1.73757970000000  90.00907506000000 -1.86761436424467
1.01481293000000 1.66526540000000 136.38767225000001 -1.86707719410856
1.00390405000000 1.63894062000000 106.29512621000001 -1.86711597265719
1.11495342000000 1.85588294000000  97.45764629000000 -1.86797152073791
0.92027462000000 1.89441733000000  90.81306438999999 -1.86800611975366
0.85585193000000 1.76421002000000  88.42192764000001 -1.86759168894594
1.02654648000000 1.97453086000000  96.14128350999999 -1.86826022517937
1.17662035000000 1.62402748000000  92.33993778000000 -1.86716569671103
0.86814764000000 1.74094009000000  76.07805317000000 -1.86716831125625
0.73004504000000 1.71254982000000 111.90750374000000 -1.86740937140542
0.99447775000000 1.74116910000000  95.69164582000001 -1.86757848204616
0.89055995000000 1.68817312000000 119.72005320000000 -1.86722096061794
0.94678790000000 1.66233599000000  96.84728883000000 -1.86727502594510
0.96098855000000 1.83388861000000 118.24710623000000 -1.86778964302141
0.96844811000000 1.84409379000000  63.77506822000000 -1.86711950208542
1.02141166000000 1.63209403000000 118.96893304000000 -1.86699987531631
0.89247483000000 1.66778441000000  85.19345240000000 -1.86716517305877
1.25173022000000 1.72274284000000 114.98994390999999 -1.86757404085836
1.02390183000000 1.47378903000000 107.94173594999999 -1.86609127230270
1.09518122000000 1.84435486000000 104.46134198000000 -1.86792639823670
0.72788484000000 1.68184112000000 117.58553533000000 -1.86724893353744
0.97642557000000 1.72361466000000  80.68041035000000 -1.86733810298756
0.97835144000000 1.81222538000000 124.98684498000000 -1.86769681910562
0.94835395000000 1.53702668000000  95.90166125000000 -1.86662950942957
0.91526968000000 1.47771299000000 115.25651188000001 -1.86605080597349
0.97202870000000 1.55112481000000 129.53135997999999 -1.86646845874486
1.12539359000000 1.70582749000000  77.03230917000000 -1.86726152128722
1.15251656000000 1.47467171000000 105.31006173999999 -1.86617128445050
0.97286142000000 1.47092324000000 132.81139567000000 -1.86584593749660
1.32379636000000 1.68546619000000 127.57469107000000 -1.86746471567665
0.92337492000000 1.57952141000000 100.45368510000000 -1.86685903361581
1.34783685000000 1.73291625000000 112.46225806000000 -1.86768705337079
0.96386261000000 1.66135595000000 128.76024545999999 -1.86706330417007
0.99016657000000 1.71138792000000 139.80046192000000 -1.86726110878749
1.11035745000000 1.94346812000000  99.70012997000001 -1.86821702133886
1.04917444000000 1.82523542000000  94.92541296000000 -1.86785661509691
0.95413055000000 1.70245262000000 102.73968705000000 -1.86740543973076
0.85030474000000 1.60312517000000  95.96791131000001 -1.86699320664195
1.04683385000000 1.68947370000000 107.87771045000000 -1.86734124626582
0.96922488000000 1.68384635000000 109.36959232000000 -1.86728560179915
0.97024553000000 1.60395775000000 118.64411616000000 -1.86684279027929
1.02526514000000 1.65713106000000 138.91529349000001 -1.86703401763032
1.04434240000000 1.68032110000000  77.28364707000000 -1.86708020545518
1.12884251000000 1.70888612000000 127.72611275000000 -1.86738908291522
0.89027806000000 1.71715079000000  84.62627234000000 -1.86736370854396
0.95943481000000 1.94446364000000 118.34950010999999 -1.86815287491152
1.16618310000000 1.80151898000000  99.32671610000000 -1.86782812382307
1.08470472000000 1.65180558000000  74.18829528000001 -1.86683477552003
1.10645310000000 1.69282971000000 135.22896112000001 -1.86728507605881
1.03749769000000 1.89785147000000 108.78111653000001 -1.86805640191892
0.95350098000000 1.51770138000000  74.55457733000000 -1.86588225752757
1.07665846000000 1.69696192000000 131.93428716000000 -1.86728406346015
0.86620430000000 1.79541942000000  96.89442749000000 -1.86773434327279
0.80923153000000 1.65498640000000 109.60020931000000 -1.86716714530144
1.23881368000000 1.79625764000000 107.59805436000001 -1.86784452993413
0.90480291000000 1.66552207000000 113.53296717000001 -1.86716887808655
0.95754183000000 1.46796103000000  97.87440192000000 -1.86612390329697
1.00691201000000 1.62976908000000  99.60629661000000 -1.86712367584357
0.95709825000000 2.00366467000000 102.75106198000000 -1.86832213846174
0.86635965000000 1.72136985000000  69.70873171000000 -1.86674875601727
0.88672991000000 1.59150825000000 108.73864628000000 -1.86685252498921
0.75086190000000 1.82414663000000 101.75172510000000 -1.86782768532305
1.04343353000000 1.90948671000000 106.53409431999999 -1.86809593993405
0.95777236000000 1.65510760000000  90.57637631000000 -1.86723346990834
1.11602793000000 1.64276992000000 112.61172508999999 -1.86713674295061
0.93533122000000 1.73391187000000  82.36077580000000 -1.86740030109661
0.90039097000000 1.54279958000000 103.36584864000000 -1.86662029805689
0.98905141000000 1.73508926000000  87.65790715000000 -1.86752508275788
1.00633202000000 1.79749738000000 116.28670796999999 -1.86769085673950
0.89668447000000 1.67426724000000  95.25608049000000 -1.86732033971521
1.14506044000000 1.91511065000000 105.44483679000000 -1.86816020301831
0.85754088000000 1.78636740000000  97.89093880000000 -1.86770608634265
0.99833562000000 1.74130108000000  92.55152531000000 -1.86757836394463
1.11111180000000 1.71851477000000  85.00652104000000 -1.86748821381013
1.02547705000000 1.72363833000000  60.98988167000000 -1.86642987047776
1.10299654000000 1.75899935000000 107.13691378999999 -1.86763950569070
0.89703367000000 1.90447339000000 111.02877453000001 -1.86802351574192
0.93389435000000 1.67337612000000  87.56726413000000 -1.86726416916576
0.94601570000000 1.99077691000000  73.26576455999999 -1.86808176983823
0.88257331000000 1.62040264000000 107.26423207000001 -1.86701504241444
0.85327277000000 1.44879926000000 110.59625561999999 -1.86585806067421
0.93897335000000 1.81767287000000  96.36367701000000 -1.86780744740645
0.91735855000000 1.65258031000000 124.43563263999999 -1.86703519580112
0.79369845000000 1.69696814000000 114.39188419000000 -1.86730993048866
1.01889299000000 1.71619926000000  97.80738113000000 -1.86749127027826
1.10706289000000 1.70298919000000 100.43384062000000 -1.86745661678356
0.96824513000000 2.07685545000000  92.99747791999999 -1.86847656341740
0.89467426000000 1.65829518000000 107.73224999999999 -1.86718525027982
0.90550101000000 1.61183674000000  78.31649041999999 -1.86661490315737
0.95385730000000 1.83767997000000  86.89062536000000 -1.86783035748670
0.98737206000000 1.94523298000000  96.24248496000000 -1.86817188690316
1.08277643000000 1.71308150000000 112.89477943999999 -1.86742712466162
1.29182222000000 1.63092838000000 104.03471822000000 -1.86722701914539
1.30764126000000 1.60481139000000 101.81456240000000 -1.86711166958378
1.03001011000000 1.67618686000000 113.59889029000000 -1.86724137880947
0.89748311000000 1.75013072000000  88.63864589000001 -1.86755736982241
1.05860279000000 1.70250808000000  79.64634081000000 -1.86727967508489
0.81925045000000 1.71901395000000  70.74241966000000 -1.86675984529461
1.41162484000000 1.68337942000000 121.12741419000000 -1.86753077043022
0.91120434000000 1.87623778000000 108.75590400000000 -1.86794765513412
1.06391315000000 1.50655508000000 110.06330341000000 -1.86633410303443
1.01752708000000 1.63192606000000 137.74795970000000 -1.86690212488247
1.08842503000000 1.44541997000000 101.57862132000000 -1.86592983699643
0.96764729000000 1.81080403000000 120.53020165000000 -1.86770258637841
0.98721226000000 1.65220620000000 110.57812649000000 -1.86714117597228
1.08538245000000 1.48171282000000  95.76433776000000 -1.86626714918248
0.77750294000000 1.56348989000000  96.78575827000000 -1.86676035914127
0.86140590000000 1.67972952000000  99.93893104000000 -1.86733189747110
0.88256074000000 1.78097909000000  85.14056179000001 -1.86760890514654
0.96839349000000 1.46526967000000 122.01264541000000 -1.86592246297607
0.92529418000000 1.70273963000000 105.23552118000001 -1.86738771712498
1.00426206000000 1.66737565000000 123.44098266000000 -1.86713409088156
1.06993066000000 1.66341927000000  76.71737770000000 -1.86699912886183
1.03328833000000 1.98979294000000  98.75001281999999 -1.86830693809748
1.24267375000000 1.84142640000000 103.20088889000000 -1.86798954304743
0.88551986000000 1.72084810000000 115.36795453000001 -1.86738300165325
1.05865099000000 1.66956579000000 124.24062977000000 -1.86717036887035
1.01317727000000 1.60197542000000 113.32101667000001 -1.86687958323910
0.97107175000000 1.69293179000000 120.85770359999999 -1.86724724063708
1.02326611000000 1.77003752000000  80.72689652000000 -1.86754850103023
0.87250617000000 1.67256807000000  99.63654013999999 -1.86730424697032
0.87643664000000 1.96232278000000 102.75797020000000 -1.86819789539436
1.02863374000000 1.88838856000000 107.42322174000000 -1.86802583241320
0.99024267000000 1.84753219000000  65.59693126000001 -1.86725197602129
0.99750975000000 1.76822419000000  69.05625960000000 -1.86705947840233
0.85535239000000 1.71848460000000 113.76205569000000 -1.86738723114604
1.00463711000000 1.48186702000000 118.91703113000000 -1.86608224894258
1.08747273000000 1.44691736000000  99.93346884000000 -1.86595581806273
1.01773952000000 1.68722147000000  63.57197011000000 -1.86638026944649
0.98004626000000 1.99084426000000 133.76710987999999 -1.86830595981189
1.34768311000000 1.54650650000000 102.98129615000001 -1.86680887520129
1.13610551000000 1.65233504000000  88.60602978999999 -1.86727219625300
0.95201845000000 1.71080736000000  82.30674969000000 -1.86731478946626
0.88972789000000 1.50977655000000  99.65171126000000 -1.86642994022202
1.21735740000000 1.69306973000000 107.95998102999999 -1.86744649042112
1.01439643000000 1.48982390000000 114.97550242000000 -1.86616504973574
0.94838730000000 1.61759838000000  85.33618767000000 -1.86696094788044
0.95393765000000 1.70708769000000  83.81920375999999 -1.86733927949297
0.97238970000000 1.84524525000000  82.36127639999999 -1.86780518695105
0.94233713000000 1.48505186000000 144.90427381000001 -1.86557998864589
1.28429277000000 1.65777694000000 118.35656363000000 -1.86731129211535
0.79023655000000 1.69056215000000  72.00796716000001 -1.86664798189304
1.08381029000000 1.65651447000000  97.54948837000001 -1.86727054461244
0.97205937000000 1.56053703000000  96.37389734999999 -1.86677581522872
0.87934883000000 1.80378534000000 100.77544085000000 -1.86775344355408
1.01941790000000 1.48788896000000 102.77270433000000 -1.86624622596912
0.86727995000000 1.67561891000000 102.52686931000000 -1.86730095161852
0.99581087000000 1.75028956000000  98.73617772000000 -1.86760302918515
0.90571259000000 1.62967251000000  68.85223625000000 -1.86623970022958
1.26483841000000 1.59395928000000 105.33033678000000 -1.86701694534850
1.19399412000000 1.66664968000000  86.24150956000000 -1.86733897861609
1.23561141000000 1.98379898000000 104.27014430000000 -1.86838734661615
1.11079423000000 1.71036028000000  95.75217494000000 -1.86749928286679
0.82868823000000 1.62560039000000  88.95748754000000 -1.86701258532901
0.94329416000000 1.86870523000000  98.59766977000000 -1.86795394224498
0.85428205000000 1.70035051000000 112.54253366000000 -1.86732548804162
0.92827979000000 1.72067463000000 110.32596820000001 -1.86742041229286
1.15891186000000 1.65503860000000 111.21095810000000 -1.86722821409751
1.27534719000000 1.72160136000000 110.61215642000001 -1.86759478503996
1.37756100000000 1.70616605000000 103.48745132000001 -1.86760619788436
0.90841039000000 1.59685646000000 122.76391166000001 -1.86676859173633
0.96547318000000 1.68048762000000  92.95427918999999 -1.86735220558239
1.03403957000000 1.63489888000000 111.80009477000000 -1.86706429396429
0.76349767000000 1.73054897000000 116.39296352000000 -1.86743643517923
0.87774266000000 1.51969912000000 112.42184227000000 -1.86638354469426
0.94199601000000 1.59017416000000  67.18961519000000 -1.86599725135534
0.86873441000000 1.78879450000000 105.64826069000000 -1.86768673419908
0.96885718000000 1.76780974000000 108.74184332999999 -1.86761027321438
1.21397320000000 1.69355516000000  87.70139632999999 -1.86746052971182
1.06477332000000 1.63413606000000 109.94691702000000 -1.86708512645225
0.99952293000000 1.67002787000000 132.88654872999999 -1.86710316688243
1.06899918000000 1.74544837000000 102.42586669000001 -1.86759377228691
1.08244594000000 1.72916338000000 128.68057542000000 -1.86743466947507
1.02455718000000 1.65129131000000 113.12448600000000 -1.86712979947049
0.93014136000000 1.63857653000000 106.80228031000000 -1.86710295491548
1.40421680000000 1.58929243000000 104.44706085000000 -1.86709332867463
0.84475849000000 1.64419332000000  96.54339589000000 -1.86718946005135
1.00212988000000 1.67711843000000 107.33125487000000 -1.86727892062481
0.75796149000000 1.66905869000000 111.02920181000000 -1.86722943801908
0.78163861000000 1.60396975000000 112.42296256000000 -1.86690620365539
1.00593452000000 1.73980036000000  65.26970990000000 -1.86670980765791
1.02768986000000 1.54912543000000  89.10944857000000 -1.86669746474422
1.02013469000000 1.72323567000000  79.43145266000001 -1.86733008462500
0.73432744000000 1.70236493000000 127.64007635999999 -1.86726943441238
0.80271287000000 1.73617795000000 109.39581099000000 -1.86749313203836
0.92848298000000 1.65040867000000  65.90879140000000 -1.86623114161966
1.29007636000000 1.69058861000000  81.04366512999999 -1.86741628809625
0.90176910000000 1.62246511000000  75.02673846000000 -1.86650819399847
0.98015009000000 1.73804365000000 111.38474720000001 -1.86748950910862
0.88007866000000 1.63542090000000  95.33162778000001 -1.86715239189311
0.85832107000000 1.73513719000000  86.54823659000000 -1.86745981744616
1.13176151000000 1.82308498000000  99.81703084999999 -1.86788090529149
1.02826045000000 1.63936070000000 108.11593637000000 -1.86711004315976
0.89621707000000 1.72706795000000  85.46191897000000 -1.86742407822408
1.34189195000000 1.67224991000000 124.05984558000000 -1.86742202426854
0.90039382000000 1.80962507000000 102.82022170000000 -1.86776546535395
1.01339785000000 1.80655215000000 112.30049638000000 -1.86774260295863
0.98446094000000 1.62041962000000  76.04437009000000 -1.86664077441935
1.03552358000000 1.69740636000000  94.25816800000000 -1.86743305264508
0.95302121000000 1.92333813000000 123.85943116000000 -1.86807480630307
0.82537624000000 1.64898009000000  75.42339710000000 -1.86660895324042
1.02520921000000 1.76779201000000 100.05887002000000 -1.86766487868385
1.43966732000000 1.60054722000000 106.87340507000000 -1.86717556371320
0.97290634000000 1.84472597000000  95.57095627000000 -1.86789236889331
1.51917437000000 1.89337678000000 103.30488119000000 -1.86826270519680
1.05788224000000 1.73438216000000 105.33071884000000 -1.86753674527552
0.93823238000000 1.91937570000000  82.96274821000000 -1.86801907887184
1.00895247000000 1.96006007000000 106.74451146000000 -1.86822539573370
1.08821098000000 1.92039650000000  98.03310985000000 -1.86814329948720
1.04077786000000 1.87403708000000  95.01651214000000 -1.86799388946440
1.16575543000000 1.83621727000000 100.80684796000000 -1.86793583452811
0.79036027000000 1.66801162000000 121.53168565999999 -1.86713813661640
0.95636372000000 1.45614596000000 117.46248466000000 -1.86586965537026
0.95129781000000 1.91687694000000  97.20298561000000 -1.86808804517432
1.00477266000000 1.81243143000000 123.29474338999999 -1.86771834897047
0.96488777000000 1.79476285000000  96.91768139000000 -1.86774317563470
1.34046852000000 1.67844874000000 114.54806268999999 -1.86745795972763
1.02836303000000 1.76277030000000 117.65688808000000 -1.86756886217165
1.02251010000000 1.62158643000000 121.03880015999999 -1.86693631659944
0.89271322000000 1.57522003000000  90.19153282000001 -1.86679889983134
1.30505453000000 1.81479549000000 102.80110928000001 -1.86793864580000
0.86394863000000 1.79871329000000 108.65361366000000 -1.86770299408147
1.00004910000000 1.72824684000000 113.16586260000000 -1.86744755685083
1.53482466000000 1.73375886000000 108.13869874000000 -1.86780204885974
0.91689314000000 1.76116194000000  75.16588608000001 -1.86725951834535
0.84332436000000 1.80143336000000  94.35324552000000 -1.86774874633522
1.15207783000000 1.69382055000000  59.09380937000000 -1.86632975430439
0.94818479000000 1.64816313000000  79.89103439000000 -1.86693348364633
0.80316385000000 1.74311586000000 113.90005321000000 -1.86748758418344
0.93651102000000 1.71489603000000 106.47690867999999 -1.86742637258203
0.93133524000000 1.74229424000000 121.66646138999999 -1.86743085806609
1.14790573000000 1.70361187000000 122.70218250000001 -1.86739333864625
0.74470400000000 1.86318051000000 105.83685948999999 -1.86793686978206
0.94270558000000 1.70137016000000  90.19120500000000 -1.86741160953977
1.04161083000000 1.58989439000000 100.84886652000000 -1.86691923934279
0.99655252000000 1.84717364000000  96.66062140000000 -1.86790590832140
0.85677546000000 1.70698758000000  73.13961252000000 -1.86684418126583
1.05324102000000 1.67182965000000  82.22707994000000 -1.86721701795545
1.36605991000000 1.67989251000000  86.53771150000000 -1.86745833560622
1.17103289000000 1.71525991000000  77.00458514000000 -1.86733818974994
0.93085645000000 1.80266383000000  93.55516698000000 -1.86775926839300
0.82807787000000 1.77656993000000 105.18064389000000 -1.86765275070775
0.97205639000000 1.65667596000000 130.60901512000001 -1.86703578092624
1.16903369000000 1.68325481000000  89.80032983000000 -1.86741364026875
1.10993420000000 1.66512069000000 132.20003829000001 -1.86716481767155
1.14666943000000 1.62754700000000 113.29419774000000 -1.86707731316085
1.10765258000000 1.69128370000000  92.56927051000000 -1.86742934024562
0.84572907000000 1.62116724000000  85.26661747000000 -1.86689845818296
0.96036119000000 1.44829285000000 112.91693560000000 -1.86583077631610
0.97758932000000 1.51155580000000 108.78356934000000 -1.86635675367961
0.92277143000000 1.72306816000000  66.54073789000000 -1.86662695902942
0.92648707000000 1.83715251000000 112.68904145000000 -1.86781291739783
1.07871887000000 1.65191301000000  79.21588758000000 -1.86705195941886
0.99231356000000 1.72590263000000 128.20808317999999 -1.86735972026713
1.01105549000000 1.74428828000000  69.38523985000000 -1.86697044411551
0.92112546000000 1.56132571000000 110.33470267000000 -1.86666344646119
1.28238816000000 1.87575752000000 100.55043496000000 -1.86810471667070
0.83875773000000 2.15092838000000 105.78064396000001 -1.86865167901237
1.21167806000000 1.71650150000000 122.13205302999999 -1.86750290233647
1.09759786000000 1.49116572000000 104.31223427000000 -1.86627732294050
0.92999546000000 1.77354161000000 119.65552200000000 -1.86755889415394
1.11279033000000 1.69788408000000 141.35592907000000 -1.86730064810786
0.95345649000000 1.92241991000000 117.33653743000001 -1.86808152608148
0.92176253000000 1.79967563000000  84.78948579000000 -1.86767918348289
0.92807476000000 1.72063833000000 115.50949820000000 -1.86738404841458
1.10884305000000 1.71764769000000 124.18090223000000 -1.86741818606902
1.04467350000000 1.64435013000000  71.49831174000001 -1.86660423310161
1.04457735000000 1.75096998000000 123.77062405000000 -1.86750880721911
1.18461145000000 1.62265660000000 106.93663008999999 -1.86710779677014
0.84066267000000 1.70290075000000  83.48523256000000 -1.86724407241229
1.11420564000000 1.67786537000000 126.36448111000000 -1.86724164235079
1.34345662000000 1.75519770000000 106.91077353000000 -1.86776664838715
0.71203318000000 1.80416109000000 104.17974594000000 -1.86777406502995
0.78237460000000 1.66940676000000  96.63509227999999 -1.86729073646131
1.43242390000000 1.66177396000000 102.27064154999999 -1.86745913548896
1.41020405000000 1.67102619000000  87.08021974000000 -1.86744336782976
0.99981211000000 1.60922037000000  96.65587574000000 -1.86704051431616
1.02082859000000 1.73820613000000  93.34703512000000 -1.86757469345173
1.07366521000000 1.70841627000000  76.02516642000001 -1.86718672178824
0.95603836000000 1.62290044000000  70.92305322000000 -1.86635559096544
1.23556215000000 1.67874600000000 126.40712482000001 -1.86735292592209
0.97689052000000 1.87338513000000  70.89199848000000 -1.86761214940202
0.93929007000000 1.94011004000000 101.77708069000001 -1.86814890249480
1.18986719000000 1.64312349000000  96.34990343000000 -1.86724952938857
1.01941225000000 1.58398223000000 121.25760977000000 -1.86673498210689
0.84086929000000 1.79230280000000 105.72262447000000 -1.86769932196671
1.04940589000000 1.67444649000000  64.76903460000000 -1.86640680719370
1.32875489000000 1.69214734000000  75.06836991000000 -1.86730214680097
1.50622248000000 1.62327241000000  98.78891019000000 -1.86732533942381
0.80005035000000 1.64894510000000  97.40443328000001 -1.86720693147640
1.01133801000000 1.63511969000000 107.85199192000000 -1.86708728890528
1.23500716000000 1.70552643000000 116.37745386000000 -1.86748749160392
0.96316444000000 1.44019986000000 106.58252453000000 -1.86581288201035
0.78603225000000 1.74403064000000 100.66460596000000 -1.86756895905592
1.05732743000000 1.60888195000000  96.54600712000000 -1.86704851954869
1.03344148000000 1.85444644000000  95.51340669000000 -1.86793693431082
0.83090144000000 1.74954318000000  84.84190404000000 -1.86746942729462
1.02330467000000 1.83994472000000  96.53953266000001 -1.86789269931046
1.18277683000000 1.82412614000000 107.57774401000000 -1.86790389775206
0.98786687000000 1.74052307000000 125.18020270000000 -1.86742817300421
0.94068523000000 1.56450288000000 134.51593396000001 -1.86648460710410
0.97456886000000 1.58676886000000  79.24809037999999 -1.86658497545454
1.35427022000000 1.70007693000000  91.43240797000000 -1.86754983223273
0.97788563000000 1.76309301000000  66.73069171000000 -1.86688729784623
1.11926035000000 1.64302547000000  93.97894635000000 -1.86723271830760
0.95359322000000 1.70409657000000  84.65879820000001 -1.86734583150178
1.14664511000000 1.70130778000000  86.41212274000000 -1.86745546797590
0.95972890000000 1.50659304000000 116.06410744000000 -1.86626539703525
0.92639138000000 1.65424763000000  84.01340000000000 -1.86709146741941
0.75778198000000 1.64049228000000 116.79688772999999 -1.86705803373957
0.86033074000000 1.81155326000000 104.60998346000000 -1.86776356976748
1.04103040000000 1.90692400000000 103.91715682000000 -1.86808928935977
0.89533005000000 1.43908425000000 105.29917836000000 -1.86581962712387
1.08482281000000 1.68602965000000  56.89452083000000 -1.86618727018720
0.87364795000000 1.62921977000000 120.25232085000000 -1.86695187379667
0.97981823000000 1.77336312000000  82.20530929000000 -1.86756894772452
1.41912773000000 1.69929129000000 127.12947226000000 -1.86760563083033
1.33219972000000 1.84096956000000 101.09487977000001 -1.86802793703555
1.39492337000000 1.64726242000000  99.72227108000000 -1.86737088808593
1.00042857000000 1.75759678000000 120.49552215999999 -1.86752166233430
0.99574574000000 1.68323938000000 120.83760657000001 -1.86721475186494
1.09875109000000 1.70426744000000  76.33936405000000 -1.86720427875991
1.34448452000000 1.67139172000000  99.29558552000000 -1.86744521263415
0.99565985000000 1.75300671000000 140.11320216999999 -1.86743775775187
0.87233156000000 1.67381692000000  66.81378070000000 -1.86634568757836
0.84154588000000 1.67615512000000  84.92558090000000 -1.86716412131886
1.07839996000000 1.60936956000000 109.99853364000001 -1.86696576154429
1.30867241000000 1.72100009000000  95.07662888000000 -1.86761551577854
0.88828731000000 1.70525268000000 116.14641192000001 -1.86731598093513
0.94926758000000 1.51782298000000  63.52222420000000 -1.86554449236974
1.06310738000000 1.57823411000000 112.50437841999999 -1.86677290912348
0.90205607000000 1.82513485000000  97.89108666000000 -1.86782367361457
0.98942011000000 1.65815057000000  90.19653830999999 -1.86725411274540
0.89377249000000 1.58441369000000  82.29438661000000 -1.86661658726109
1.20491235000000 1.75987316000000 100.99773238000000 -1.86770708771041
0.97826137000000 1.78812003000000  83.72390769000000 -1.86764659448681
1.14413881000000 1.79564803000000  97.55311591000000 -1.86780051994708
1.29810075000000 1.66470081000000  92.95684617000001 -1.86738992328537
1.22794891000000 1.68890912000000 138.63271452999999 -1.86738264012456
0.95091034000000 1.81270836000000  78.71321322000000 -1.86761351854489
0.84037827000000 1.76883554000000 109.40490668000000 -1.86760115027278
1.09663800000000 1.84451194000000 108.88145528000000 -1.86792048546954
0.84809699000000 1.64947703000000 119.60549116000000 -1.86705526565891
1.27183275000000 1.74309720000000 101.28490384000000 -1.86768205241856
0.99981638000000 1.85987579000000 123.44654495000000 -1.86788481590497
1.27385982000000 1.68226777000000  66.28959197000000 -1.86674601788434
0.92740143000000 1.88875212000000 106.09683158999999 -1.86799559708186
1.06179407000000 1.68442481000000 130.30911540000000 -1.86721990728142
1.13667803000000 1.66784285000000  73.20411184000000 -1.86692540600700
0.94755125000000 2.02134677000000  77.49435714000001 -1.86823144195307
0.93793943000000 1.50005744000000  94.96273200000000 -1.86637247879878
1.00739530000000 1.75927233000000  82.91483638000000 -1.86754757317681
1.06262246000000 1.66677215000000 121.44559739000000 -1.86717217443663
0.97827481000000 1.65821775000000  85.80575564000000 -1.86718911789217
1.53528126000000 1.70813423000000 115.86827620000000 -1.86771733931755
1.01537036000000 1.74020458000000  70.86797930000000 -1.86703457125498
1.01241675000000 1.64651132000000 107.08301926000000 -1.86714713276126
0.99041383000000 1.67265291000000  77.68768799999999 -1.86700681782543
0.92942880000000 1.68405583000000 146.37324688000001 -1.86706191591520
0.92780837000000 1.71922114000000 120.97827097000000 -1.86734351151085
1.04990031000000 1.71245770000000  73.92283225000000 -1.86708817630688
0.98490766000000 1.78076494000000  95.41803993000001 -1.86770493088704
0.94677031000000 1.54839389000000 114.70060730000000 -1.86654963211436
0.95759089000000 1.65000260000000  94.97143969000000 -1.86722740836524
0.98555942000000 1.44949191000000  78.54750280000000 -1.86555980972128
1.01339207000000 1.64603847000000  98.86889893000000 -1.86720343819309
0.76676416000000 1.67121768000000 121.02200144000000 -1.86716389325602
0.95764194000000 1.61368471000000  97.95380971000000 -1.86705233783596
0.81023578000000 1.79436082000000 112.90413178000000 -1.86767087722080
1.07938209000000 1.70752399000000 143.04772753000000 -1.86730710120730
1.28105741000000 1.69134808000000  76.99034593000000 -1.86732431201835
0.98207268000000 1.78531947000000  99.00679882999999 -1.86771379914512
0.94994987000000 1.65941031000000  94.47138074999999 -1.86726619688432
0.83386338000000 1.62669739000000  93.87015339000000 -1.86709473693884
0.73603064000000 1.75391780000000 100.29059319000000 -1.86760982955195
0.82957392000000 1.70886752000000 103.30269019000001 -1.86742843031118
0.88440024000000 1.59163517000000  91.73162635000000 -1.86691077587375
0.90656108000000 1.58543526000000  97.20792577000000 -1.86690730909993
0.98404609000000 1.74546687000000  90.92191006000000 -1.86758307180162
0.85654111000000 1.61640116000000  86.82368588999999 -1.86692849429244
0.85931404000000 1.66487516000000  96.55283444000000 -1.86727939004288
1.00772299000000 1.51979872000000  88.81008011000000 -1.86648831819093
1.01950228000000 1.83637519000000 117.27308488000000 -1.86783027074387
0.84799635000000 1.68319866000000  79.49526247999999 -1.86700982880677
0.89715604000000 1.81936767000000  94.87605261000000 -1.86780597459745
0.94765435000000 1.45849944000000 135.05878236999999 -1.86566595162276
1.37798392000000 1.68236027000000 132.38958572999999 -1.86750079970625
0.87446810000000 1.71643072000000  77.48274692000000 -1.86711302043034
1.02866528000000 1.84742232000000 108.32171574000000 -1.86789770435962
0.97896259000000 1.54456547000000 138.05626569000000 -1.86632360927933
1.07733547000000 1.67735560000000 122.14910976000000 -1.86722651970706
1.17741403000000 1.62732222000000  93.39376255000001 -1.86717985470875
1.01065319000000 1.66278971000000  88.39710725000000 -1.86726534152831
1.11796192000000 1.69531055000000  91.81026730000001 -1.86744719617127
1.06154553000000 1.91446292000000  98.10516741000001 -1.86811710563211
0.93332518000000 1.66164668000000 107.71627363000000 -1.86719952636383
1.21198571000000 1.62042040000000 104.05417366000000 -1.86712518896866
1.03631518000000 1.57681994000000  93.13329105000000 -1.86688591941981
1.37079162000000 1.70206299000000 127.46317424000000 -1.86757774078251
1.11084821000000 1.84260401000000  99.27283504000000 -1.86793162468246
0.96839367000000 1.58915424000000 111.98064019000000 -1.86681051810262
0.98881633000000 1.51825558000000 107.82937671000001 -1.86641289578756
0.86078179000000 1.85634881000000 102.20088067000000 -1.86790482167817
0.95381277000000 1.67805434000000 107.31277718000000 -1.86727464207081
1.26021116000000 2.02477452000000 103.35780647999999 -1.86849830182223
0.85628165000000 1.71115345000000  73.42598123000000 -1.86688095880311
0.96158315000000 1.66489952000000  83.70183953000000 -1.86715834679103
0.82620205000000 1.74486499000000  99.87900987000000 -1.86757043527803
0.96788532000000 1.79892334000000  75.65123319999999 -1.86747679206883
0.95779686000000 1.65619349000000 107.72022499000001 -1.86717701792816
0.82663183000000 1.85360687000000 102.18414661000000 -1.86789878783077
0.93291359000000 1.57184132000000  98.14000591999999 -1.86683049016335
1.01678070000000 1.69865375000000  70.38970396000001 -1.86680016841672
1.00731692000000 1.57282634000000  97.09408406000000 -1.86684728435887
1.47829162000000 2.03282882000000 102.61086869000000 -1.86859976617063
0.96409184000000 1.96982945000000  92.00000353000000 -1.86821714413293
0.89805265000000 1.72037311000000 107.12158116000001 -1.86744077887590
1.18872693000000 1.55381853000000 107.53848610000000 -1.86672635676541
1.06121231000000 1.81919265000000  95.61954555000000 -1.86784302664887
0.96361283000000 2.15630121000000  71.22710515000000 -1.86846210399528
0.94799494000000 2.06670183000000  83.01939613000000 -1.86839266432105
1.00482707000000 2.01404339000000 114.06021643000000 -1.86838016758600
0.95020715000000 1.58091622000000 110.36027153000001 -1.86677649531021
1.21390509000000 1.67825535000000 111.98700363000000 -1.86736750275816
1.04309505000000 1.73078444000000 126.02694766000000 -1.86741885679260
0.98286506000000 1.94195867000000 106.80011775000000 -1.86816432769240
0.86047251000000 1.84419093000000 110.17083943000000 -1.86783988030857
0.90344639000000 1.67728514000000  93.09270926000001 -1.86732747354563
0.88770463000000 1.65950499000000  85.60148392000001 -1.86713417266867
0.97785585000000 1.91280873000000 111.03851283000000 -1.86807199129692
0.97437036000000 1.94882768000000  55.73325708000000 -1.86717070341626
1.08726379000000 1.72017382000000  80.80402411999999 -1.86740480149501
1.12484609000000 1.88515477000000 106.15560836000000 -1.86806305602420
0.98203245000000 1.62205048000000 117.26047984000000 -1.86694739460211
0.76991484000000 1.67239557000000  81.20063430000000 -1.86696322460671
0.85326279000000 1.57259831000000 109.02012080999999 -1.86675075095809
0.95861885000000 2.11948503000000  69.40581496000000 -1.86835594602917
0.96290568000000 1.77389193000000 101.87772409999999 -1.86766387397836
1.13575485000000 1.72242615000000 108.44398936000000 -1.86751441686226
1.04569022000000 1.95050505000000 109.49942014000000 -1.86821507063689
0.90227144000000 1.77551544000000  98.81836421000000 -1.86767211299343
0.91923755000000 1.74158001000000  73.91126872000000 -1.86711140906209
1.14332888000000 1.71302465000000 101.14239745000000 -1.86750749717498
0.99247317000000 1.58396558000000  76.31457267000000 -1.86644634746449
1.32469377000000 1.69350207000000  71.42587660000000 -1.86715262539406
1.03128255000000 1.68652360000000 115.08369390999999 -1.86727769478932
0.95226016000000 1.55763123000000 125.11091141999999 -1.86653657280397
0.95443092000000 1.48474223000000 105.33103918000000 -1.86619285509278
0.89864259000000 1.83330129000000  93.86374400000000 -1.86784437477820
0.84914757000000 1.82321586000000 104.70841960000000 -1.86779941259545
0.91135911000000 1.62926494000000 109.39044031000000 -1.86703650583604
1.02214900000000 1.85898347000000 106.42298929000000 -1.86793574512012
1.12363611000000 1.66427357000000 107.70633586000000 -1.86726735796378
1.11196392000000 1.73861403000000 107.41108115999999 -1.86756791657149
0.94951197000000 1.67864477000000 107.62871470000000 -1.86727424248295
0.98952317000000 1.60819112000000 111.74411225999999 -1.86691766888453
0.74130355000000 1.69865817000000 101.89842372000000 -1.86740650764216
1.03798650000000 1.74469238000000  90.56210222000000 -1.86759429372091
1.12150703000000 1.69680134000000  87.64749282000000 -1.86743834159097
0.89295031000000 1.68696576000000 103.22894678999999 -1.86734019277776
0.70203843000000 1.67089232000000 114.58103522000000 -1.86723360476060
0.99692893000000 1.53926294000000 114.00180099000001 -1.86650568857397
1.17030020000000 1.71609560000000 120.46677584000000 -1.86747043606522
1.01209057000000 1.64988052000000 103.01542151000000 -1.86719286823916
1.18993953000000 1.72514374000000 101.14350408000000 -1.86757475706020
0.85227145000000 1.52505224000000  97.21087574000001 -1.86653636409164
1.02198234000000 1.66055495000000  83.74219748000000 -1.86718220777345
1.02331453000000 1.63144415000000  89.97362249000000 -1.86714624081696
0.98415367000000 1.67604926000000  75.11689364000000 -1.86689810444102
1.04803689000000 1.73097869000000  79.68051875000000 -1.86738979557663
1.06455461000000 1.75563860000000 104.36385579000000 -1.86762084310544
1.10496374000000 1.72624938000000 116.57449790000000 -1.86747719064704
1.29888452000000 1.75278064000000 108.94365983000000 -1.86772980168701
0.91117551000000 1.73486618000000  87.16671946000000 -1.86748903409284
1.01328076000000 1.91037766000000 110.62023033000000 -1.86808059674661
0.82535615000000 1.59664069000000  90.40811496000001 -1.86688668256443
1.02026238000000 1.93961815000000 101.92638682000000 -1.86817302859663
0.91846290000000 1.57402053000000 113.19237692999999 -1.86671305006791
1.01820531000000 1.70087410000000 102.02759777999999 -1.86741412956439
1.03267727000000 1.77333237000000 109.07921605000000 -1.86764985728553
1.13363742000000 2.11497571000000 104.50017145000000 -1.86865828483189
0.82017319000000 1.75705783000000  89.10758203000000 -1.86756715703348
1.11253737000000 1.70392772000000  81.45811921000001 -1.86737346800430
0.86823302000000 1.71583660000000 111.20894790000000 -1.86739474578610
1.09675203000000 1.65834615000000 131.32013896999999 -1.86712308031508
1.10428378000000 1.72597546000000 125.51432950000000 -1.86744615789848
0.95271008000000 1.89391467000000  73.17036063000000 -1.86775845240459
0.94215779000000 2.00300281000000 103.26372468000000 -1.86831662925192
1.02206325000000 1.64770207000000  58.76423301000000 -1.86605114403153
0.90222095000000 1.58261042000000  84.51999475000000 -1.86669960117024
0.96640957000000 1.87542555000000  80.72622567000001 -1.86787036202361
1.25368080000000 1.55931758000000  98.65768752000000 -1.86683654857018
1.08728401000000 1.68966660000000  73.24653720000001 -1.86698257746230
0.98752767000000 1.47353317000000 124.07254754000000 -1.86598197601700
1.30506566000000 1.69092711000000  68.62830181000000 -1.86696633368024
0.97613946000000 1.61109100000000 129.87624413000000 -1.86681321947719
0.89161803000000 1.51343367000000 111.01080044000000 -1.86635134059975
1.33906226000000 1.70889258000000 104.07107882000000 -1.86759346850522
1.15440545000000 1.72224561000000  89.28196198000001 -1.86755041192441
0.89706851000000 1.86807757000000 110.64617050000000 -1.86791397305001
1.25155571000000 1.75673842000000 100.20057063000000 -1.86771939875416
1.05246879000000 1.65879872000000  58.65778199000000 -1.86611509520890
1.00848018000000 1.74850811000000 144.00893518999999 -1.86741616246456
1.11306472000000 1.69963401000000 104.87839236000001 -1.86742704131507
1.11803950000000 1.78472117000000 104.76112237000000 -1.86774401751927
1.03857547000000 1.58739542000000  95.12189411999999 -1.86694045011347
1.08686100000000 1.81683073000000 103.16187917000001 -1.86783860930996
1.05261464000000 1.66561630000000 119.27424802000000 -1.86717182612608
0.93342338000000 1.63091174000000  96.93137629000000 -1.86713632064516
1.00891594000000 1.71523452000000 103.54217595999999 -1.86745869529682
0.87488238000000 1.47244135000000 104.50559283000000 -1.86611372903440
1.43631987000000 1.73734867000000 106.61528165000000 -1.86775848071454
1.17724232000000 1.87559927000000 104.78135469999999 -1.86806056158252
0.86390356000000 1.66198053000000 112.04094880000000 -1.86716796507483
1.12930338000000 1.64092042000000 120.59181427000000 -1.86709788352539
0.97227470000000 1.63388871000000 119.01110656000000 -1.86699170443421
0.89304978000000 1.76107593000000 125.56773493999999 -1.86747469143631
1.14911137000000 1.61580473000000 101.46823834999999 -1.86708200206533
1.07174045000000 1.78682368000000 104.44620758000001 -1.86773102229995
0.88869070000000 1.54723576000000  92.02229695000000 -1.86665442679089
0.95671278000000 1.64396351000000  93.98398314000001 -1.86720063498274
1.09632525000000 1.74819490000000 116.03792975000000 -1.86756051413863
0.90244962000000 1.82228027000000 109.76353388000000 -1.86777458127335
0.98673454000000 1.80330545000000  89.44925078999999 -1.86775759105615
1.01540801000000 1.74594579000000 104.05679756000001 -1.86757076259846
1.08735288000000 1.62873468000000  98.06631387000000 -1.86714333302848
1.44757330000000 1.65715900000000 114.12296648000000 -1.86744616440308
0.96469684000000 1.95200313000000 115.00030834000000 -1.86818077689827
1.00370296000000 1.53692745000000 105.04350477000000 -1.86656452551847
0.96683725000000 1.91427479000000  76.44907225999999 -1.86791470549861
0.91598515000000 1.89219798000000 111.33687401000000 -1.86798900092413
1.19530017000000 1.57933375000000 104.42457970000000 -1.86689560622187
1.24118955000000 1.71633550000000  84.91698674000000 -1.86753481430003
1.29996263000000 1.76273787000000  97.31201562000000 -1.86776030974522
1.01400829000000 1.84983248000000 105.84996934000000 -1.86790577301826
0.90381971000000 1.66379492000000  70.30011181000000 -1.86649666416827
0.99129636000000 1.61112908000000 119.21343557000000 -1.86688208219084
1.31416305000000 1.70276884000000 132.29623235000000 -1.86753200373562
0.98473024000000 1.77562583000000  78.98057210000000 -1.86750103200393
0.92468287000000 1.75484131000000 125.35505808000001 -1.86745846643760
0.97584287000000 1.67481741000000  64.24550753000000 -1.86631606609444
0.97699101000000 1.51715588000000 113.39330241000000 -1.86635941009695
0.92127101000000 1.68821597000000  99.92370343000000 -1.86736492556724
1.04240056000000 1.70595575000000  85.80261579000000 -1.86741973952405
1.20043165000000 1.71640027000000  98.76020154000000 -1.86755048884743
1.14001777000000 1.65732016000000 120.78011734000000 -1.86718398521566
0.85570239000000 1.64622548000000 116.41460080000000 -1.86706309120200
0.90425166000000 1.48272890000000 101.68832322999999 -1.86621601910588
0.92223587000000 1.85902498000000 118.90563813000000 -1.86785862901070
1.02082759000000 1.67823010000000 138.67737532000001 -1.86713547224747
1.05950984000000 1.81383850000000  93.05887457999999 -1.86782340329148
1.05187378000000 1.67903424000000 104.43474953000000 -1.86732030901794
0.92802993000000 1.61812207000000 139.50917519999999 -1.86675241432783
1.03707843000000 1.65844208000000  95.94961769000000 -1.86727460322686
1.05499535000000 1.78955637000000 112.80250527000000 -1.86770195644010
0.92061303000000 1.80294779000000 114.44325118000000 -1.86768911455852
1.06252927000000 1.70471356000000  78.01389568000000 -1.86723745430027
0.92290767000000 1.59415453000000 113.82802706000000 -1.86681970081975
0.96530041000000 1.57300228000000 145.50105246999999 -1.86638632064307
0.86598882000000 1.60812688000000 106.37953515000000 -1.86696441293338
0.90685066000000 1.57136714000000  88.12684019000000 -1.86674215517701
1.10946224000000 1.77759508000000  94.50588557000000 -1.86772995211447
0.94894612000000 1.83532280000000  99.29630942999999 -1.86785840752680
0.99768162000000 1.58634613000000 136.46186105000001 -1.86663565781680
0.92321145000000 1.65730745000000 103.93823377000000 -1.86721125887027
0.89179638000000 1.53971135000000  96.91922335000000 -1.86663811498158
0.96886953000000 1.71200788000000 115.65398260000001 -1.86735747030013
0.83097483000000 1.74253103000000  99.07757795000001 -1.86756427682269
1.01992500000000 1.63058431000000  62.56751089000000 -1.86609390140836
1.06054288000000 1.72092752000000 120.69870432000000 -1.86740939097035
1.12418948000000 1.48944817000000 107.02395550999999 -1.86625785282524
0.97582909000000 1.66528031000000 134.49576510000000 -1.86706074177880
0.90303073000000 1.74170191000000 123.25914193000000 -1.86741451365288
0.93932375000000 1.74132935000000 118.27591906000001 -1.86744853405435
0.89643335000000 1.53611864000000 101.93286139000000 -1.86659110013943
0.83025762000000 1.75195270000000  88.99029593000000 -1.86755019624866
0.97202368000000 1.95797873000000 116.20134511000001 -1.86820176074343
1.05211486000000 1.64896110000000  78.56667199000000 -1.86698633077560
0.87961312000000 1.67517933000000  93.14118154000001 -1.86731452551078
1.03954848000000 1.66294461000000  94.75211485000000 -1.86729710324164
0.94639588000000 1.51265559000000  89.54664200000001 -1.86641175152909
1.03366820000000 1.59480483000000 104.12572428999999 -1.86691756006076
1.14294650000000 1.68495160000000 128.47006464000000 -1.86729368873864
1.49556548000000 1.79155566000000 100.43939399999999 -1.86795249024465
1.10606892000000 1.82251706000000  97.32635594000000 -1.86786916898143
0.71377635000000 1.65042367000000 100.04010952000000 -1.86720967232895
1.02034483000000 1.58485447000000  92.91229575000000 -1.86692551060412
0.94001995000000 1.86651069000000 121.94819975999999 -1.86788014440901
1.04592451000000 1.66867559000000  60.67092416000000 -1.86620938520082
0.99025364000000 1.69397772000000  90.30562292000000 -1.86739899633142
0.97650415000000 1.80077781000000 100.79463412000000 -1.86775647992863
1.04815070000000 1.72273064000000 110.40257600000000 -1.86746165045929
0.93735958000000 1.50390779000000 136.36473712000000 -1.86601184357573
1.02116910000000 2.03092323000000  95.52677798000001 -1.86839621629565
0.91584155000000 1.72612704000000  77.59302488000000 -1.86719573688811
0.84144123000000 1.66464174000000  94.43679160000001 -1.86727078932120
0.91224051000000 1.70796106000000 110.40798644000000 -1.86736938662705
0.95383587000000 1.51161066000000 146.92661670999999 -1.86578898766174
0.97526069000000 1.99041089000000 131.22138946999999 -1.86830523511458
1.09098529000000 1.60867568000000  99.56531749000000 -1.86703734154173
0.88938920000000 1.70429185000000  86.07547099999999 -1.86734295517374
0.96353368000000 2.04540867000000  56.35858386000000 -1.86766293218659
1.05099664000000 1.64899527000000  90.36846369000000 -1.86723658848575
0.96152610000000 1.60386124000000 122.42276834000000 -1.86681622351398
1.07892895000000 1.50363849000000 108.38221932000000 -1.86633085792721
1.00165965000000 1.67912896000000 142.79403531000000 -1.86710773869413
0.96720590000000 2.09354176000000  65.08367800000001 -1.86819957715466
1.42217794000000 1.70429139000000 129.57534283000001 -1.86762973991256
0.98079203000000 1.82235377000000 100.54571102000000 -1.86782454869592
0.94176494000000 1.56482012000000  69.01108836000000 -1.86593220537407
0.87370266000000 1.48144761000000  97.51055144000000 -1.86622207532480
0.96590461000000 1.48007179000000 115.35901551000001 -1.86607532574669
1.28588488000000 1.51626745000000 105.18113396000000 -1.86656275964049
0.81809815000000 1.69363093000000 115.46568554000000 -1.86728251781096
1.00753410000000 1.58097936000000 107.87351927000000 -1.86680500970510
0.97870996000000 1.71393930000000 137.61898864000000 -1.86727160739713
0.78406103000000 1.67110541000000  82.19296362000000 -1.86700587136636
1.01216699000000 1.81836475000000  90.56845936000001 -1.86781498319237
1.05783386000000 1.66014812000000 114.22807443000001 -1.86717794227388
1.12402639000000 1.70193065000000 113.64446388000000 -1.86740194983008
0.98966752000000 1.75084367000000  98.98119659000000 -1.86760288121172
0.95259126000000 1.74772642000000  98.15535061000000 -1.86758863851639
0.89294208000000 1.79531975000000  92.27145588000000 -1.86772760599445
0.79463639000000 1.83974573000000 101.88231340999999 -1.86786372847348
0.98613002000000 1.58934627000000 133.79963054000001 -1.86666973269450
0.94304841000000 1.57070718000000  76.29859490000000 -1.86630373637627
0.83151155000000 1.64330804000000 111.92507707000000 -1.86709028627752
1.09309810000000 1.83724419000000  99.44924614999999 -1.86790850261946
1.13413661000000 1.66482425000000 115.18199276999999 -1.86723853685066
0.97278877000000 1.73314306000000 108.64638533999999 -1.86748645686430
0.99773382000000 1.88932112000000 108.54502535000000 -1.86801359114952
0.97464877000000 1.83505460000000 126.44590817000000 -1.86777326932315
0.97921197000000 1.51075456000000 102.23074069000000 -1.86641464522472
1.14417349000000 1.65285819000000  84.37273188000000 -1.86723678924443
0.95965473000000 1.60657207000000 103.46794583000001 -1.86697654662237
1.06132036000000 1.66341238000000  93.71376402999999 -1.86730554491658
1.00193040000000 1.71102550000000  88.28537634000000 -1.86745035525519
0.98553507000000 1.96906321000000  96.31757931999999 -1.86823338390616
1.05228442000000 1.71601469000000  61.87533347000000 -1.86645925769733
0.80142083000000 1.97555309000000 105.94606834000000 -1.86823526326702
1.20684844000000 1.70816372000000 122.67361957999999 -1.86746248017982
1.33221787000000 1.67151833000000  89.30742780999999 -1.86742421546626
0.77192523000000 1.71999980000000 108.79908656000001 -1.86744492970502
1.30678342000000 1.69282431000000  74.60965190000000 -1.86727136132617
1.03598632000000 1.73630174000000  79.12329278000000 -1.86738579769394
0.93266941000000 1.88366469000000  95.06185927000000 -1.86799171231439
0.96078498000000 1.84632485000000 106.47409523000000 -1.86787535850328
0.98988051000000 1.85183416000000  94.75150312000000 -1.86791598014258
0.81282123000000 1.70448290000000  92.41185812000001 -1.86741017259567
1.07058268000000 1.80937256000000 112.40561803000000 -1.86778103518964
1.17121596000000 1.74379252000000 100.48337033999999 -1.86763531926351
1.46151163000000 2.03040406000000 102.57228587000000 -1.86858770842252
1.17961577000000 1.77662227000000 109.39177354000000 -1.86773911733565
0.94019319000000 1.92515345000000  92.02514678999999 -1.86809640392539
1.32595681000000 1.64317148000000 107.75497804000000 -1.86730102753108
1.01478785000000 1.74630803000000  60.47286701000000 -1.86649542771124
0.99531147000000 1.58371742000000 103.30233230000000 -1.86685879849574
1.06858840000000 1.62876337000000 125.26656952000000 -1.86697681728151
1.12235995000000 1.61685676000000 104.38521348000000 -1.86705935891985
0.98929929000000 1.44365934000000 114.60945196999999 -1.86578885078950
1.04586826000000 1.69018804000000  90.71027660999999 -1.86740368698008
1.22852449000000 1.66582257000000 111.97696267000001 -1.86732252722504
1.07835543000000 1.71516450000000  97.02951500000000 -1.86750468116816
0.96161204000000 1.43835179000000  86.43891478000000 -1.86573008447408
0.93742758000000 1.98187532000000 106.06533991000001 -1.86826045975897
0.93652944000000 1.72948186000000 105.99628740000000 -1.86748408613835
1.00678301000000 1.78182483000000 120.36456582000000 -1.86761705396134
0.87171306000000 1.95828970000000 106.02021697000001 -1.86818458634059
1.03083662000000 1.77386609000000  81.62630711000000 -1.86758572983990
0.76634272000000 1.55323430000000 107.67919565000000 -1.86666970563408
0.95569706000000 1.75463037000000  82.53197614000000 -1.86749553092636
1.07891021000000 1.66892582000000  86.51432283000000 -1.86730035911626
0.78458399000000 1.70583367000000 106.58245960000001 -1.86740336523542
1.32298942000000 1.77885188000000 100.28057387000000 -1.86782958505728
0.99607065000000 1.75130856000000 118.71334548000000 -1.86750401625238
1.02005335000000 1.68679927000000 108.54991345000001 -1.86731646620149
0.91072634000000 1.83114197000000 116.66613029000000 -1.86777153565833
1.16834778000000 1.78941868000000 105.58510006000000 -1.86778386030562
1.01330633000000 1.92418074000000 106.31887492000000 -1.86812578984564
1.50240686000000 1.52246143000000 104.69318312000000 -1.86676679412187
0.98451477000000 1.88530128000000 100.08818798999999 -1.86801019337702
1.17568183000000 1.77946513000000  98.84117550000001 -1.86776100870247
1.18399279000000 1.92888276000000 104.15784106000000 -1.86821602384930
1.52286394000000 1.50357160000000 105.38982772000000 -1.86665256440017
0.78795083000000 1.74524616000000 112.08358910000000 -1.86751134180975
0.92136221000000 1.52861920000000 111.06268980000000 -1.86645135819288
1.16727375000000 1.95971377000000 104.76178441000000 -1.86829387723196
1.06341432000000 1.85851905000000 107.49791625000000 -1.86795039674166
1.05365418000000 1.83915219000000 112.90116564000000 -1.86787084416937
1.06458871000000 1.98531231000000 102.19034701000000 -1.86831296720243
1.06422159000000 1.65739063000000 127.91635847000001 -1.86710360408210
1.00739326000000 1.93870089000000 110.07015895000001 -1.86816280270057
0.87379805000000 1.67762846000000 115.72815049000000 -1.86720553096256
1.09935074000000 1.71089806000000  85.98513181000000 -1.86746659269204
0.96995554000000 1.54634780000000  87.69441954000000 -1.86662056125567
0.98791092000000 1.86182548000000  87.03281434000000 -1.86791053286652
1.01879335000000 1.80425782000000  91.00819497000001 -1.86777710679598
0.86316605000000 1.64138033000000 114.14997574000000 -1.86705753663864
0.97370533000000 1.75252186000000  96.50008780000000 -1.86761135776817
1.41851754000000 1.71444609000000 111.64629442000000 -1.86766495812799
0.88293234000000 1.64543647000000  65.82610004999999 -1.86616470944887
0.92771611000000 1.86252898000000 102.65893364999999 -1.86792740163617
1.06912960000000 1.52414778000000  99.91495985000000 -1.86653797904501
0.98129384000000 1.68391545000000 129.27132906000000 -1.86717081400684
1.09858295000000 1.72253483000000  82.91979077000001 -1.86746526043453
1.01432573000000 1.66525685000000 110.46301201999999 -1.86720827951456
0.96427325000000 1.70489945000000  86.71054782000000 -1.86739215231000
1.09943037000000 1.63533622000000 115.48159275000000 -1.86707527394447
0.90700691000000 1.64512551000000  90.30637962000000 -1.86716849213985
1.28041338000000 1.79204797000000 104.58269333000000 -1.86785452052652
1.17526114000000 1.50037933000000 102.40845525000000 -1.86639298290561
1.16552569000000 1.69334279000000  84.56463045000000 -1.86741501883307
0.83988947000000 1.77332813000000  92.43335324000000 -1.86765423121199
1.40030290000000 1.59287621000000 100.54172665999999 -1.86711126259934
0.97286451000000 1.53483994000000 104.47359888000000 -1.86655446940210
1.08578129000000 1.82385781000000 104.02294087000000 -1.86785878043736
0.99694821000000 1.83281311000000 119.40826159000000 -1.86779897053498
0.95235887000000 1.47061911000000  67.84810538000001 -1.86536911550456
0.97162323000000 1.54679304000000 108.73742401000000 -1.86658988775582
0.96711431000000 1.55772655000000  78.53011386999999 -1.86635761995137
0.70824178000000 1.81980631000000  96.94439767000000 -1.86782508260808
0.80639133000000 1.72098910000000 112.63756916000000 -1.86741336995306
1.00961321000000 1.63101398000000 102.34462895000000 -1.86711026158150
1.00193456000000 1.67850702000000 123.47921366999999 -1.86718275231897
0.97136033000000 1.80041527000000  69.26308553000000 -1.86720787247498
0.85904522000000 1.73845654000000 106.97161027000000 -1.86750936586498
1.01494970000000 1.70444788000000 124.69074770000000 -1.86729627381862
0.91850273000000 1.51663016000000 109.83795823000000 -1.86638168953482
0.92848846000000 1.48645739000000  87.75831582000001 -1.86615671850359
0.84941428000000 1.63795811000000 125.23728220000000 -1.86696033684552
0.96871548000000 1.87038646000000  90.28545561000000 -1.86794899824463
0.96137519000000 1.74037363000000 103.68781593000000 -1.86754062220268
1.09089115000000 1.57640467000000 113.19680756000000 -1.86677140638244
0.87329499000000 1.76330387000000 103.72411382000000 -1.86761322917471
0.97351178000000 1.75365194000000  97.05720702000001 -1.86761413026738
0.92498436000000 1.73660755000000  59.94600349000000 -1.86636805657383
1.21573971000000 1.70243309000000  80.21764188000000 -1.86740578087461
1.00071135000000 1.62420773000000 113.73404549000000 -1.86698737158974
0.83099895000000 1.80052499000000 102.48226760999999 -1.86773986039020
1.09294761000000 1.87275031000000  97.80942755000000 -1.86801200291075
0.90566862000000 1.74377594000000  95.50481041000000 -1.86757396560301
0.95631259000000 1.78826874000000 103.57291419000001 -1.86770246106141
1.13042999000000 1.78901873000000  96.96732443000001 -1.86777423846627
0.78762250000000 1.69583250000000 119.57550701000000 -1.86727055259644
0.90780650000000 1.55932604000000  92.96044515000000 -1.86674760027154
1.25811144000000 1.68303576000000 110.59390802000000 -1.86742421410270
1.24082614000000 1.71470111000000  96.17376934000001 -1.86756336498411
0.71815142000000 1.71125225000000  83.67321434999999 -1.86722080351979
0.92821967000000 1.60659971000000 119.11757231999999 -1.86684671687158
0.91212493000000 1.64133030000000 123.02504620000001 -1.86699097481085
0.97833458000000 1.74673087000000 105.11214982000000 -1.86755851493149
1.14685705000000 1.66140462000000  94.26510406000000 -1.86731966372076
0.95778928000000 1.78497660000000  99.11308500000000 -1.86770769581472
0.96072311000000 1.75464590000000  64.74835093999999 -1.86671844250850
0.97944015000000 1.93542965000000 120.16501031000000 -1.86813277768385
0.84848669000000 1.85523468000000  98.38740248000001 -1.86790730682810
1.00032594000000 1.69625177000000  65.84189340000000 -1.86652048991903
0.96572131000000 1.85797980000000  81.86244197000001 -1.86783436237909
0.93826246000000 1.83371626000000 102.62065500999999 -1.86784417003173
0.99009365000000 1.73614221000000  79.70854391000000 -1.86736994756257
0.90705855000000 1.61025804000000 137.96198011999999 -1.86671130255081
1.03783990000000 1.78458509000000  97.55408774000000 -1.86772853687546
1.06051477000000 2.17565695000000  99.11219334000000 -1.86872710497278
1.01500736000000 1.74579072000000  74.67836370000001 -1.86724519236577
0.94249909000000 1.59019555000000 125.88357759000000 -1.86671582794077
0.94123123000000 1.59861742000000  75.21611655000000 -1.86641970069525
0.93417758000000 1.59989999000000 118.63235095000000 -1.86681554329675
0.84955120000000 1.70272183000000 108.08985663000000 -1.86736969390984
1.00580859000000 1.52447274000000 108.21975587000000 -1.86645419355432
0.92199075000000 1.66324247000000  83.75208264000000 -1.86712359415264
0.89004718000000 1.58187438000000  97.42656945000000 -1.86688634790880
1.22574584000000 1.70281900000000  82.89887603000000 -1.86745794796047
0.96199896000000 1.61813828000000 145.05337832000001 -1.86671387239255
1.37806312000000 1.67682324000000  73.76475454000000 -1.86722883591040
0.97814851000000 1.77158694000000 108.01321032000000 -1.86762989926433
1.02927617000000 1.56775209000000  85.89468110000000 -1.86675640835404
0.95404597000000 1.97141269000000 112.24728055999999 -1.86823522681118
1.13524594000000 1.69868006000000 140.17296761000000 -1.86732969782327
1.05138634000000 1.57899287000000  90.11933016000000 -1.86689287837487
1.00880339000000 1.80018108000000 110.05588530000000 -1.86772847324971
1.00844124000000 1.67498877000000  75.92743588000000 -1.86695707801255
1.04100456000000 1.87772021000000 106.40014186000001 -1.86800077465352
0.95239675000000 1.65786346000000  99.86885015999999 -1.86724291888913
1.19934000000000 1.71603449000000  90.92878825000000 -1.86754826374079
1.05252918000000 1.67397655000000  86.13568580000000 -1.86730334952961
1.26866001000000 1.86988882000000 102.39284068000001 -1.86808539794163
0.99245901000000 1.62278338000000 117.89150471000001 -1.86694990403043
0.87026260000000 1.66495017000000 115.51162850999999 -1.86715263811527
0.93607428000000 1.45858134000000  84.43448994000001 -1.86582196723180
0.96818195000000 1.58467460000000  92.99899908000000 -1.86691113908580
1.40775681000000 1.69892087000000  63.67318620000000 -1.86678501513518
1.04082364000000 1.71869421000000  71.86643635000000 -1.86700594799117
1.03033129000000 1.71517184000000 101.65596552000000 -1.86747389845766
1.48195975000000 1.67890449000000 115.68631329999999 -1.86756488131141
0.93088137000000 1.86649450000000 116.12415772999999 -1.86789596888855
1.07372450000000 1.85835259000000  96.14146692000000 -1.86796219905852
1.44620967000000 1.87481010000000 105.11223308000000 -1.86818854758167
0.96941089000000 1.73873321000000 104.15459803000000 -1.86753353353549
1.29660000000000 1.69568448000000 121.01005471000001 -1.86748820687762
1.02819398000000 1.60940469000000 110.61158103000000 -1.86694260131958
0.95768004000000 1.89863349000000 101.73506786000000 -1.86803893088893
1.29189814000000 1.70043766000000 103.57164824000000 -1.86753181898769
1.05792426000000 1.86715074000000  99.28689146000001 -1.86798332737044
0.97268103000000 1.76137810000000 110.89826207999999 -1.86757615356214
1.47055839000000 1.66373178000000  98.18064898999999 -1.86748259216665
1.29549929000000 1.68689003000000 104.46960278000000 -1.86747815778369
1.07003308000000 1.66353236000000 125.87039832000001 -1.86714376434225
1.00728721000000 1.63513624000000  92.40418597000000 -1.86716954293718
0.93443161000000 1.72983110000000 100.96428423000000 -1.86751446282722
0.99886213000000 1.88731230000000  93.36534285000000 -1.86801422477720
1.10338395000000 1.75171081000000  95.15448142000000 -1.86764341137541
1.00720252000000 1.69820986000000 125.36886327000001 -1.86726255945621
0.95379314000000 1.69508207000000  94.92958801000000 -1.86740825195909
1.29290697000000 1.64947470000000 108.75191139000000 -1.86730415354759
0.85734516000000 1.66852189000000 113.12810578000000 -1.86718843846938
1.05056717000000 1.69573160000000 138.35346625000000 -1.86724193986447
0.94937754000000 1.90441834000000  74.61984661000000 -1.86783439160263
1.07535385000000 1.57315536000000  91.43798552000000 -1.86687465201067
0.92788090000000 1.94657525000000 103.96881979000000 -1.86816278664628
1.04057742000000 1.68782140000000 110.85584227000000 -1.86731328330620
1.23136496000000 1.66660818000000 112.01022299000000 -1.86732804027724
1.31245342000000 1.69322764000000 101.38484527999999 -1.86751642174318
1.07416699000000 1.77482328000000 107.77599762000000 -1.86767933101021
1.22113645000000 1.70885569000000 114.26377991000000 -1.86749622582329
1.32866543000000 1.60146413000000 106.63032576000001 -1.86709893860518
1.15528425000000 1.71011579000000 104.41048748999999 -1.86749125517758
1.14926831000000 1.77916458000000  98.82882819000000 -1.86774896173097
1.16307607000000 1.61481931000000 107.05034040000000 -1.86705482622358
1.22899489000000 1.70440646000000  91.44226586000001 -1.86751724061878
1.32431747000000 1.66482779000000  89.28431293000000 -1.86739408180154
0.85020318000000 1.93656717000000 107.88362334000000 -1.86812089343948
0.92009954000000 1.59463316000000  76.20690387000000 -1.86642209548120
1.03326137000000 1.76200718000000 110.84354233000001 -1.86760107693419
1.00310420000000 1.72208692000000  83.12536273000001 -1.86741229767188
1.10935542000000 1.69509153000000  91.65086330000000 -1.86744358556689
1.04921033000000 1.74786031000000  79.27666447999999 -1.86744524833341
1.12648979000000 1.75667036000000  99.19608368999999 -1.86766378839900
0.84111414000000 1.73872724000000  91.99671603000000 -1.86753685325471
0.98137383000000 1.57780948000000  83.51516348000000 -1.86670946353615
1.08156374000000 1.48951610000000 101.30934839000000 -1.86628453318633
1.02558234000000 1.58928503000000 102.49927085000000 -1.86689990257321
1.03442110000000 1.63063255000000  95.74770891999999 -1.86715185460719
0.76231489000000 1.73506614000000 100.89973110000000 -1.86754022630282
0.72822720000000 1.60761678000000  94.85029889000000 -1.86697079593398
0.77904079000000 1.72177170000000  93.44584782000000 -1.86747754000294
0.86869866000000 1.78764146000000  98.39221396000001 -1.86770941043528
0.95469724000000 1.78297144000000  65.23626446999999 -1.86688599264494
1.06071444000000 1.60865341000000  95.38360670000000 -1.86705310666912
1.44678794000000 1.54639419000000 101.74167232000001 -1.86687972249945
1.06971681000000 1.72848734000000  86.30701625000000 -1.86752016340120
0.76309493000000 1.71160022000000 130.77800375000001 -1.86727381872970
0.90105592000000 1.64480335000000  91.37046893000000 -1.86717675229784
0.99407609000000 1.85104638000000 103.32809849000000 -1.86790862595717
1.01690568000000 1.47937258000000  98.82366783000001 -1.86621603655078
1.27750170000000 1.71189200000000  91.33594356000000 -1.86756231956440
0.93942294000000 1.80434808000000  61.73844686000000 -1.86678660827977
1.03608501000000 1.68828668000000 113.60810760000000 -1.86729633129050
1.13887876000000 1.68350225000000 102.21176779000000 -1.86738364955488
1.18691934000000 1.65825790000000 120.86037594000000 -1.86722521743172
0.87406502000000 1.78575576000000 118.24182426000000 -1.86760319673522
0.96046147000000 1.71362021000000  81.47343051000000 -1.86730860722878
0.96293143000000 1.74049482000000 129.12974374000001 -1.86740046139607
1.16632795000000 1.49748757000000 103.61824949000000 -1.86636019099956
1.17271595000000 1.73667500000000  99.77751632000000 -1.86761152218980
1.14949833000000 1.64169610000000 114.53697216000000 -1.86714279329908
1.39191991000000 1.69383383000000  94.04276751000000 -1.86755082515992
0.95890651000000 1.66117621000000  73.93796850000000 -1.86673175861370
1.26649527000000 1.65286566000000  97.20790277000000 -1.86732455060940
0.97488588000000 1.70136825000000 111.01841111000000 -1.86734722296569
0.97417669000000 1.61849650000000  89.66683833000000 -1.86706251221926
1.47499857000000 1.66458544000000 102.02094753999999 -1.86749611547430
0.88473017000000 1.55955864000000 100.03281995000000 -1.86674945306220
1.04883783000000 1.68292232000000  96.44638630999999 -1.86737576520818
1.03211548000000 1.52044991000000 108.14021535000001 -1.86643357694174
0.89280309000000 1.71598054000000 115.64656725000000 -1.86736209162530
1.03599497000000 1.70405277000000  86.81335654999999 -1.86742259335438
0.94935497000000 1.52428066000000  97.37733703000001 -1.86654239286418
0.90632165000000 1.54863023000000 112.62574818000000 -1.86656694498254
0.95174814000000 1.71737337000000  72.58703875000000 -1.86695136944229
1.05179861000000 1.62210893000000 110.37351253000000 -1.86701751315456
1.04590466000000 1.71026094000000  83.42930092000000 -1.86739827133135
0.97804563000000 1.65680310000000 113.84003353000000 -1.86713610532956
0.85001924000000 1.68946921000000  91.88921550000001 -1.86735563379830
0.74735251000000 1.84618564000000 102.59829707000000 -1.86789286664396
1.06674277000000 1.62643105000000  99.78082577000001 -1.86711736751852
1.34926910000000 1.69862283000000  75.18128387000000 -1.86734739373765
1.01400465000000 1.59475702000000  83.78326085000000 -1.86684574384549
1.25303213000000 1.78956082000000 100.02620812000001 -1.86782966007638
1.21475695000000 1.48351587000000 101.97927278000000 -1.86629313882554
0.98845312000000 1.42620875000000 124.21629315000000 -1.86558528362048
1.39842065000000 1.85449116000000 103.17603916000000 -1.86810347104517
1.00507197000000 1.70363069000000  76.38613663000000 -1.86711543224396
1.32267231000000 1.58730280000000 101.56346206000001 -1.86702938489339
0.92930408000000 1.75020489000000 100.36165932000000 -1.86758688416342
1.27936022000000 1.68062214000000 129.32949020000001 -1.86740139414349
0.97214643000000 1.66643002000000  99.43810123000000 -1.86728301895630
1.14162471000000 1.83236777000000 102.23038852000001 -1.86791287289782
1.02280385000000 1.63517618000000 111.79418665000000 -1.86706176225096
1.05385108000000 1.71665958000000 124.17881079000000 -1.86737373626283
1.08541396000000 1.52075674000000 104.88470552000000 -1.86647825839134
0.85244605000000 1.71317156000000  87.02231770000000 -1.86738093601230
0.99693287000000 1.73491572000000 143.56648779000000 -1.86735336111849
0.68299540000000 1.70465820000000 123.38345528000001 -1.86733876676305
0.97282490000000 1.52555686000000  83.13597407000000 -1.86634340638420
1.00684180000000 1.75607801000000  70.40590269000000 -1.86708022569894
0.90274906000000 1.72460463000000 121.43335801000001 -1.86735852144875
0.98919343000000 1.67932899000000  87.52176639000000 -1.86731388169551
0.99634301000000 1.90892544000000  99.68193169000000 -1.86808000377243
0.84349071000000 1.59454056000000  94.43137151000001 -1.86693882431075
0.92403158000000 1.89718061000000 111.81065731000000 -1.86800478812199
1.14098859000000 1.68250239000000  81.34075967000000 -1.86730309786890
0.88791302000000 1.72634313000000  81.23880593000000 -1.86730782646828
1.03001553000000 1.64543998000000 119.61069684000000 -1.86706448748248
0.96791517000000 1.47202446000000 110.49745805000001 -1.86604589940646
0.84199590000000 1.67615547000000 105.57495003000000 -1.86728404039559
1.04598095000000 1.73762262000000 107.89228611000000 -1.86753137256369
1.50411566000000 1.70045506000000 103.17938255000000 -1.86765659855280
1.00694132000000 1.56239511000000  80.01679054000000 -1.86650318379679
0.83207798000000 1.64976778000000 128.49272169000000 -1.86699492842774
0.95009571000000 1.81626022000000  87.91804375000000 -1.86777505002556
1.30560465000000 1.94672802000000 102.18890757000000 -1.86831403591407
1.43954214000000 1.58676246000000  99.52689574000000 -1.86710367155570
1.11913482000000 1.71959393000000 116.14950235000001 -1.86746128657546
0.91029022000000 1.80647952000000 109.56413182000000 -1.86772532503267
1.11677856000000 1.64122080000000 112.54441222000000 -1.86713008568552
1.10136951000000 1.87242824000000 106.72654529000000 -1.86801277216682
0.92971430000000 1.79036557000000  85.26781801000000 -1.86765857506339
0.85934084000000 1.72236414000000  99.78071196000000 -1.86749187368628
0.74095758000000 1.55927591000000 107.60421952000000 -1.86671174328603
1.01049496000000 1.53706612000000 117.85747108000000 -1.86647235183023
0.91781495000000 1.56922697000000 112.41590669999999 -1.86669186198606
0.98179619000000 1.70625554000000 109.03119289999999 -1.86738225210138
1.18978957000000 1.70519179000000 115.59062237000001 -1.86745375166095
1.03644620000000 1.69944703000000  96.69659964000000 -1.86743627966825
0.94094269000000 1.85243323000000  73.81914073000000 -1.86761456317856
1.01707740000000 1.67753407000000  73.78467816000000 -1.86687331237556
1.20846723000000 1.69791571000000  86.49567130000000 -1.86746775183292
0.99980657000000 1.68331976000000 108.30365288000000 -1.86729774787432
1.04916679000000 1.77017513000000  95.65711813000000 -1.86768752904516
1.21887891000000 1.74531309000000 111.95164323000000 -1.86764463768111
1.05401819000000 1.73268243000000 133.12035373000001 -1.86741715805931
0.93554521000000 1.86759668000000  84.21085999000000 -1.86788478859569
1.07966279000000 1.68901150000000  72.12123502999999 -1.86691232913256
0.90174361000000 1.57238930000000  84.61338301000001 -1.86663961349211
1.15346609000000 1.71759946000000 122.40473369999999 -1.86745835003387
0.92172728000000 1.81073966000000 117.79171479000000 -1.86769895172290
0.89341065000000 1.67313149000000 109.65942892000000 -1.86723325757453
1.04244527000000 1.69000934000000  70.25713645000000 -1.86677503357748
0.91497233000000 1.86941355000000 108.15417741000000 -1.86792967276165
1.08797414000000 1.71967238000000 108.68066417999999 -1.86747728158514
0.78269045000000 1.74335204000000  86.70878814000000 -1.86746648016606
0.83008278000000 1.81859889000000 108.41657244000000 -1.86777043286224
0.84799138000000 1.73987058000000  89.71899457000001 -1.86752086959996
1.01796053000000 1.55662217000000  95.44297688000000 -1.86676259031594
0.93880343000000 1.89803335000000  90.83762268000000 -1.86801957647151
0.92975443000000 2.01587825000000 110.41552910999999 -1.86835143515259
0.81740877000000 1.64506863000000 127.09802252999999 -1.86698547137553
0.95172712000000 1.75247089000000 116.23713540000000 -1.86750596145441
0.98509920000000 1.84857357000000 108.28690931000000 -1.86788399705461
1.20866526000000 1.71527987000000  90.74308488000000 -1.86754836990792
0.87144509000000 1.68505376000000 114.17028071999999 -1.86724885917545
0.92942712000000 1.78301424000000  74.71056093999999 -1.86734858899888
0.97872401000000 1.59843686000000 101.52332303999999 -1.86695195075424
1.05889469000000 1.65696582000000  98.02612809000000 -1.86726429955354
0.88898711000000 1.80940258000000  93.40221185000000 -1.86777299426956
0.94986602000000 1.71184162000000  75.40716523000000 -1.86706048094049
1.14282326000000 1.77224608000000 111.69923527000000 -1.86769509895555
0.94987721000000 1.70276934000000  88.48672562000000 -1.86740215309317
0.74870834000000 1.61459131000000  99.46492545000000 -1.86704283411439
1.07550274000000 1.56802859000000  96.30612995000000 -1.86683560094116
1.36127624000000 1.67821862000000 126.14361674000000 -1.86746593446276
1.00249710000000 1.66651350000000 143.90160209999999 -1.86703815000942
0.86582614000000 1.59863531000000  87.19271270000000 -1.86684743257138
1.03058749000000 1.79980749000000 102.58882842000000 -1.86776363246815
0.85329592000000 1.63504142000000 121.88057676000000 -1.86697022268777
0.91799117000000 1.69525437000000  77.76953080000000 -1.86705591731914
0.97039253000000 1.64411961000000  60.05768956000000 -1.86602847023539
0.81780202000000 1.69023534000000 109.06222914999999 -1.86731796917445
1.39630850000000 1.53522554000000 105.76871727000000 -1.86677024930316
1.52667506000000 1.67971744000000 100.25723567999999 -1.86758239025175
1.00782803000000 1.63704354000000 122.99321873000000 -1.86699570529800
1.25060398000000 1.69949144000000 132.04413479999999 -1.86745759777511
1.17681274000000 1.43914092000000 102.05736457000000 -1.86591118594276
0.86702634000000 1.78178851000000  87.99729189000000 -1.86764779904956
0.98895947000000 1.56962182000000 102.53228335999999 -1.86678595481396
0.85725376000000 1.96288954000000 103.35715876000000 -1.86819822956670
1.26459648000000 1.71190445000000  83.10350176999999 -1.86751086777394
0.94404732000000 1.83269951000000  99.82157648000000 -1.86784888746968
1.19385137000000 1.69238076000000 105.76006323000000 -1.86743599026704
0.93892506000000 1.59879193000000 112.61862390000000 -1.86685473861939
0.89613560000000 1.55807858000000 103.25175487999999 -1.86671510197596
1.24623001000000 1.69641829000000 103.68689114999999 -1.86748831734781
1.03129421000000 1.60466383000000 117.39719445000000 -1.86687393062243
0.89105332000000 1.63371546000000  65.57744723000000 -1.86610384461289
0.95336425000000 1.88611114000000  88.40368586000000 -1.86797791276456
0.80840734000000 1.72492663000000  96.70684541000000 -1.86750546168116
0.84376484000000 1.69399025000000  78.54510858000000 -1.86702171188722
0.92668504000000 1.89023970000000 121.55279184000000 -1.86795638751039
0.90336878000000 1.70459046000000  71.82543087000001 -1.86680081548536
0.95603254000000 1.49432644000000  86.02395559000000 -1.86619295782691
0.80439179000000 1.63841089000000  86.77599067000000 -1.86700638544175
1.27549064000000 1.66617007000000 120.38473206000000 -1.86733892828954
1.15149667000000 1.48570557000000  98.06901451000000 -1.86630283612146
1.41829315000000 1.65291321000000 102.04542213000001 -1.86741194162084
1.07889324000000 1.73009076000000 100.75539050000000 -1.86754791378883
0.82357846000000 1.76036614000000 108.89840153999999 -1.86757771321004
0.99038572000000 1.76399559000000 115.50253574000000 -1.86756602025991
0.95369704000000 1.96720313000000 115.32976838000000 -1.86822188961344
0.89556088000000 1.74432250000000  80.00259714000001 -1.86735043922567
0.99727216000000 1.49377276000000  94.83527282000000 -1.86634038419891
1.12541541000000 1.70387862000000 116.15951927000000 -1.86740016782369
1.12116499000000 1.71968154000000  95.53362679000000 -1.86753705180843
1.05628316000000 1.67328466000000  68.57202927000000 -1.86660886999459
0.89626728000000 1.51847318000000  93.81457881000000 -1.86648534772996
0.93621422000000 1.55107734000000 136.91581024999999 -1.86635663006018
0.79281664000000 1.67808427000000  78.95455653000000 -1.86691579229375
1.07286679000000 1.72071255000000  95.26395124000000 -1.86752676247738
0.99135407000000 1.83625940000000 113.76898060000001 -1.86782740652575
0.86121984000000 1.57626066000000 105.42937636000001 -1.86680463108280
0.94149075000000 1.48982749000000 122.67282238999999 -1.86609818051909
0.95626472000000 1.56776997000000  91.18274804000001 -1.86679973096739
0.97538408000000 1.86112877000000  72.63984773000000 -1.86762600305576
1.05896526000000 1.73239053000000  74.76211325000000 -1.86722733209285
0.79791829000000 1.78943270000000  94.29519358000000 -1.86771139440123
0.84659253000000 1.60060556000000  88.15086805999999 -1.86687036118872
0.78601008000000 1.71803035000000  87.88719558000000 -1.86739022365077
0.93270470000000 1.59076391000000  74.34775011000001 -1.86631799670909
0.95488124000000 1.74228931000000  56.83776476000000 -1.86629433966266
0.93697579000000 1.75450392000000  70.61143767000000 -1.86702520829795
1.01075870000000 1.69098891000000 132.83237789000000 -1.86720609571512
1.47641220000000 1.70858137000000 104.70347167000000 -1.86767430058853
1.14397964000000 1.76998563000000 110.51331891000000 -1.86769097701381
0.82655651000000 1.69844802000000 112.38459552000000 -1.86732344347877
0.81648097000000 1.67308100000000  89.85217629000000 -1.86724967368184
0.98441781000000 1.87026375000000  99.34059533999999 -1.86796793735607
0.76594600000000 1.68587560000000  65.82245671000000 -1.86630835181836
1.08287791000000 1.78730433000000  97.25110236000000 -1.86775172438740
1.13860461000000 1.65429867000000 122.89476268999999 -1.86716113528405
1.00124097000000 1.73349742000000 104.46598118999999 -1.86751974933679
1.06393390000000 1.66589467000000 111.09978249000000 -1.86722600232247
1.01634255000000 1.63223847000000  90.10490762000001 -1.86714830414326
1.01922712000000 1.64920794000000 112.91518687000000 -1.86711958208650
1.22357558000000 1.65512387000000 115.91390040000000 -1.86725575684875
0.97272711000000 1.75107352000000 100.79554950000001 -1.86759381487320
0.78157510000000 1.67416807000000 122.21058444000001 -1.86716328535829
1.09657483000000 1.68759037000000  84.36627734000000 -1.86735508272125
1.05127149000000 1.73631771000000 116.37537654000000 -1.86748541561064
1.02534639000000 1.66092314000000 102.46360464999999 -1.86724824334760
1.00130097000000 1.58802066000000 115.85965419000000 -1.86678342706648
1.00469510000000 1.91269810000000 110.66474139000000 -1.86808364576916
1.06022312000000 1.74667625000000 108.95880006000000 -1.86756605400387
1.31788163000000 1.68269012000000 108.08218599999999 -1.86747031038681
1.12070132000000 1.72336912000000  76.93008935000000 -1.86732782067713
0.83302600000000 1.90365979000000  99.03026097999999 -1.86804119945350
0.94898384000000 1.70668123000000 117.02686725000000 -1.86732200621623
1.12815018000000 1.69168014000000 126.41562240000000 -1.86731544816621
0.90670375000000 1.70599030000000 115.07951041000000 -1.86732695897729
1.16692455000000 1.72411183000000 107.72382168999999 -1.86754146204214
0.90210203000000 1.79623917000000 106.24084295999999 -1.86770841543660
1.20542529000000 1.62782871000000 111.84772289999999 -1.86712558301826
0.97628290000000 1.57963670000000 142.45845689000001 -1.86650004584669
1.05411246000000 1.69127412000000 120.17905030999999 -1.86728237039608
1.03122745000000 1.72322800000000 121.36385866000001 -1.86739820980517
1.18574546000000 1.72024775000000 119.57959701999999 -1.86750231043015
1.00466133000000 1.78322377000000  94.93669380999999 -1.86771715212001
0.93484687000000 1.61208469000000 123.38208002000000 -1.86684724468319
1.20864523000000 1.69896007000000 124.91628430000000 -1.86742069833554
0.92532420000000 1.88938632000000 107.12172455000000 -1.86799443171378
0.92559535000000 1.76111680000000  59.04452160000000 -1.86643891633469
1.04965429000000 1.55306806000000 101.40737496000000 -1.86670551348050
1.35267839000000 1.75220449000000 103.68215922000000 -1.86775986693601
0.98708384000000 1.70294950000000 113.35199573000000 -1.86734107153950
1.21486437000000 1.60043726000000 104.14516707000000 -1.86702372796901
1.30822428000000 1.72392352000000 107.59066310999999 -1.86762982944299
0.86823988000000 1.70037431000000 102.37483037000000 -1.86739876451941
0.98731151000000 1.63476594000000 100.98122143000001 -1.86713533412944
0.86991408000000 1.87159018000000 103.24983216000000 -1.86794623980609
1.20931155000000 1.85151259000000 103.12531778000000 -1.86800353124113
1.13062763000000 1.59265858000000  96.64721450000000 -1.86698232408230
0.98330168000000 1.60327881000000  94.14701758000000 -1.86701399389028
1.13247629000000 1.70183941000000  86.59209253000000 -1.86745320778277
1.04279258000000 1.57721746000000  92.91028853000000 -1.86688970820046
1.11131174000000 1.46416526000000 105.21552681000000 -1.86606739564934
0.98563708000000 1.72749996000000 101.79689368000000 -1.86750873114033
1.07877269000000 1.68176562000000 125.21985208000000 -1.86723578971510
0.95975026000000 1.70543920000000 125.78980713999999 -1.86727001402880
1.21013976000000 1.62226222000000 104.03173414000000 -1.86713337939989
0.99270818000000 1.70142398000000  88.49597713000000 -1.86741324723687
1.18285217000000 1.71743145000000 116.02645462000000 -1.86749813235281
1.09848889000000 1.71481620000000  79.71954454999999 -1.86736320237583
1.00166462000000 1.82141275000000  90.27161311000000 -1.86781951722196
0.98411672000000 1.77600186000000 103.41356831000000 -1.86766895046037
1.06166195000000 1.76863915000000 102.73747013000001 -1.86767097254756
0.98666396000000 1.86527611000000  74.78394259000000 -1.86771570147823
1.20254884000000 1.68799604000000  95.99271329000000 -1.86744507762637
1.22202293000000 1.51434525000000 104.33262946000001 -1.86650818088015
1.03849804000000 1.67674511000000 138.80002708999999 -1.86714178434772
1.27759210000000 1.77615954000000 104.17006314000000 -1.86779998313079
0.86352477000000 1.60602658000000  92.87215487000000 -1.86699197998189
1.08684953000000 1.80218919000000 103.41291617000000 -1.86779102028117
0.98306362000000 1.70953101000000 102.41214758000000 -1.86743828942633
1.02471188000000 1.74623859000000 122.78204318000000 -1.86748101854027
0.88862813000000 1.70216498000000  98.20276898000000 -1.86742384756167
0.98431548000000 1.68341132000000  90.52674903000000 -1.86735781372022
1.01162960000000 1.57446997000000  79.49036857000000 -1.86656206868020
1.06923876000000 1.68725288000000  74.42540102000000 -1.86701014046173
1.00801398000000 1.60021573000000  82.94883844000000 -1.86684526379975
1.22287661000000 1.90980784000000 101.95725390000000 -1.86817692415389
0.87633609000000 1.43427920000000  93.27739954000000 -1.86578173817190
1.23911671000000 1.75365904000000 104.72913831000000 -1.86769999183321
1.04450625000000 1.62512523000000  84.11028075000000 -1.86703920420234
0.95321958000000 1.63482124000000 107.40279049999999 -1.86708083901158
0.88036275000000 1.79286063000000 116.51139572000000 -1.86763818458633
0.86412881000000 1.47180869000000 104.35671803000000 -1.86611197501315
1.10127742000000 1.76194886000000  95.39389758000000 -1.86767672040753
0.91069913000000 1.66421769000000 145.18732233000000 -1.86695509203241
1.01488484000000 1.68373943000000 100.93496222000000 -1.86735154262681
0.97431521000000 1.78509052000000  90.61609274000000 -1.86770536461779
0.71450524000000 1.59874824000000 101.41350950000000 -1.86696033106955
0.87310444000000 1.67844328000000 110.45422852999999 -1.86725055779823
0.97045118000000 1.54617456000000  98.34452413000000 -1.86667961269268
0.72840405000000 1.99906932000000 105.24149675000000 -1.86832340481010
0.79273148000000 1.71941467000000 107.52548738000000 -1.86744649272089
1.08034315000000 1.70654110000000 112.58384150000001 -1.86740058418764
0.90199343000000 1.53929200000000  99.33548926000000 -1.86662901570855
0.95560219000000 1.80810159000000  94.67328655000000 -1.86778156060041
0.83383896000000 1.76028808000000 101.68514227999999 -1.86761495560552
0.99334366000000 1.83202188000000 122.52758008000001 -1.86778461920073
1.27048169000000 1.65036766000000  97.03681129000000 -1.86731560757926
1.03947726000000 1.72850406000000 108.28269166000000 -1.86749212423001
0.97251102000000 1.75173830000000 113.33624291000000 -1.86752652687505
1.03045745000000 1.82333960000000  91.46782346000001 -1.86783824550992
0.78194447000000 1.70449357000000 138.81063463000001 -1.86718421406556
1.34094178000000 1.70723393000000  92.91501418999999 -1.86757488062528
1.12171647000000 1.55257254000000 102.00300770000000 -1.86671772895875
1.28809703000000 1.68987946000000  62.07625081000000 -1.86653745197736
1.20728070000000 1.75493250000000 103.69192102000000 -1.86768814173263
1.00572056000000 1.72583873000000 130.09393186000000 -1.86736110175161
0.92489939000000 1.85523919000000 105.47139219000000 -1.86789758720738
1.07011091000000 1.62883250000000 118.49574431000001 -1.86701014400774
0.94918708000000 1.94256844000000 114.35451749000001 -1.86814636088570
1.06869397000000 1.74514461000000 100.08425369000000 -1.86760068599449
1.05443662000000 1.70341903000000  80.36593439000001 -1.86730200175134
1.01613841000000 1.93635987000000 103.73442546000000 -1.86816255072767
1.37175561000000 1.68694121000000 123.29373379000000 -1.86751324777265
1.05864923000000 1.93935502000000 109.12015946000000 -1.86818909619296
1.04829567000000 1.60245241000000 122.62186688000000 -1.86684142589297
1.39344873000000 1.68379037000000  86.81191968000000 -1.86748513294469
0.99607852000000 1.86954222000000  89.08585078999999 -1.86794794467835
1.01138829000000 1.64227824000000 100.35591451000001 -1.86717701598911
1.20949321000000 1.69047926000000  94.50816598999999 -1.86745879195541
1.22148467000000 1.84843422000000  99.25613328999999 -1.86799588721317
0.91236831000000 1.62423183000000  87.07769521000000 -1.86701396385286
0.97907984000000 1.57037373000000  70.49527467000000 -1.86606079498722
1.01581079000000 1.92955766000000 107.08567064000000 -1.86814175405596
1.04034189000000 1.47855452000000  97.38125663000000 -1.86622351702079
0.94068676000000 1.96832048000000 105.48292383000000 -1.86822466923479
0.84799788000000 1.74694361000000  94.33034859999999 -1.86757761808019
0.94317437000000 1.97034465000000 103.94112446000000 -1.86823109800696
0.91284121000000 1.67010568000000  82.84070628000001 -1.86712131190143
1.30866594000000 1.66148644000000 108.40565829000001 -1.86737104874464
0.97022449000000 1.58597280000000  91.27851883000000 -1.86690871422024
0.94760990000000 1.81723487000000  67.52050780000000 -1.86718304747717
0.96860675000000 1.63814834000000 135.47860277000001 -1.86691697820925
0.97543044000000 1.70528144000000 103.81278983999999 -1.86741222341982
1.05607222000000 1.70195724000000 121.22204494000000 -1.86732476325471
1.03290383000000 1.58094197000000  85.87074780000000 -1.86683553184150
0.97501317000000 1.58504900000000 104.88564430000000 -1.86685027257386
1.05274076000000 1.66128192000000 137.89925173000000 -1.86708109462461
0.99078225000000 1.96595655000000 122.46008140000001 -1.86823702600316
0.92940849000000 1.81972007000000  80.49909392000001 -1.86767094459697
1.03673905000000 1.62962666000000 129.40468801000000 -1.86694364037692
0.94077006000000 1.75505749000000 110.06991472000000 -1.86755113992876
0.91794674000000 1.69277341000000  55.78215038000000 -1.86604986930740
0.77871312000000 1.72839790000000 117.94865468000000 -1.86741280764500
0.97831547000000 1.69318233000000 121.41364114000000 -1.86724766522798
0.98446751000000 1.66639902000000 132.40005676000001 -1.86707964438392
0.96305028000000 1.63401327000000 128.37403337000001 -1.86693416612275
0.93534751000000 1.69079245000000 102.17267705000000 -1.86736243397718
1.13560357000000 1.68382401000000  66.67459681000000 -1.86663739403764
1.29682580000000 1.79716528000000 105.09088883000000 -1.86788053433736
0.98663966000000 1.84147889000000  88.28839524000000 -1.86786161805344
1.01183590000000 1.59689927000000 130.58352998999999 -1.86674992785458
0.90196314000000 1.63084117000000 102.81472727000001 -1.86710187078688
1.07064485000000 1.55922701000000  95.97279245000000 -1.86678541141839
1.03610845000000 1.68458403000000  77.95540214000000 -1.86711988381717
0.92158783000000 1.56557974000000  74.51563815000000 -1.86615854091190
1.46445606000000 1.69894917000000  81.09208657000001 -1.86752358039837
0.96849328000000 1.93125668000000 121.28639620000000 -1.86811241356941
0.96876605000000 1.47525795000000 120.46430846000000 -1.86601048927787
0.97291699000000 1.70252359000000  54.57431457000000 -1.86609208906452
1.13366511000000 1.78775470000000  95.97653772000000 -1.86777128414644
1.00478550000000 1.58476658000000  96.87880134000000 -1.86691376687645
0.95952855000000 1.46842117000000 101.29372256000001 -1.86610416240558
1.17156919000000 1.59365698000000 104.03701888000001 -1.86696357223514
0.77106682000000 1.74802815000000 111.96081891000000 -1.86752696378505
1.18598751000000 1.54450350000000 105.99474576999999 -1.86667493301559
1.12982827000000 1.80061777000000  96.96597502000000 -1.86781061631268
0.89283463000000 1.93676221000000 106.00326975999999 -1.86812714588268
0.77322207000000 1.66381629000000 123.40988836000000 -1.86711221553890
0.80052092000000 1.72758758000000  77.23475344000001 -1.86710673797143
0.84038334000000 1.68555982000000  71.52452196000000 -1.86662865691630
1.11190450000000 1.58357621000000 100.94661736000000 -1.86690162042419
0.99487364000000 1.64625581000000  69.56045464000000 -1.86645435109449
0.94038455000000 1.93281265000000 120.55978408999999 -1.86810462925848
1.43932486000000 1.67162800000000 114.55554393000000 -1.86750358158611
1.08854042000000 1.82017696000000  96.66078901000000 -1.86785560180181
0.85594739000000 1.73780630000000 103.36542879000000 -1.86752949144386
0.86817477000000 1.78156383000000 118.95965132000001 -1.86758417715441
1.29085200000000 1.69623090000000 110.78145001000000 -1.86750309625245
0.89586488000000 1.68885396000000  89.38813132999999 -1.86733930371679
0.94389381000000 1.67168745000000 103.55385572000000 -1.86727587369660
1.04168721000000 1.72114552000000 106.23751084000000 -1.86747596105545
0.96847463000000 1.64761542000000 134.28361452999999 -1.86697178259533
1.40399047000000 1.79371317000000 105.10273366000000 -1.86792742590535
1.19734243000000 1.72327780000000  96.05129828000000 -1.86757693199274
0.95334204000000 1.57112946000000 126.40148766000000 -1.86660728079266
1.02054139000000 1.52233825000000 114.08559120000000 -1.86640138611756
1.01389841000000 1.78965518000000  85.09118788000001 -1.86768588819962
1.39566928000000 1.78652004000000 100.55314405999999 -1.86789081094810
1.23496143000000 1.54418513000000 100.71220026000000 -1.86672684254711
1.04419766000000 1.69694704000000  93.86190123999999 -1.86743362828327
1.24713320000000 1.64488036000000  92.75889481000000 -1.86728461366204
1.22945769000000 1.60618505000000 101.96043702000000 -1.86707068251212
0.81986594000000 1.80278478000000 111.91384454000000 -1.86770263334336
0.92495854000000 1.68320261000000  65.16684443000000 -1.86635499260626
0.93307661000000 1.77153855000000 113.12179191000000 -1.86758974987981
0.96052609000000 1.81258159000000  72.53425602999999 -1.86741020489353
0.98557439000000 1.67015287000000 125.70680406000000 -1.86712720119783
1.08327736000000 1.89695225000000  97.77603639000000 -1.86807651543950
0.97871692000000 1.84290486000000 114.39438611999999 -1.86784185501779
1.12544877000000 1.82753628000000  98.26917199000000 -1.86789199153804
1.14748151000000 1.69824192000000  65.28824075000000 -1.86663962127591
0.91434777000000 1.57723896000000  95.05347530000000 -1.86686389886211
0.77534065000000 1.71199535000000  70.35294245999999 -1.86667774812543
1.00367941000000 1.63995078000000 116.46650615000000 -1.86704671417749
0.98013757000000 1.74549992000000  79.24313203000000 -1.86738679053951
1.13781655000000 1.82204812000000 107.25493794000000 -1.86787283527292
1.01960360000000 1.53907518000000  84.77713334000001 -1.86653804480613
0.89409203000000 1.72809412000000  94.01991968999999 -1.86751767921953
1.21776278000000 1.68243258000000  85.70381693000000 -1.86740695685296
0.93022659000000 1.60265526000000 123.90201089000000 -1.86679398875708
1.00375489000000 1.66793038000000  65.23109128000000 -1.86635484727026
1.23404957000000 1.66971227000000  84.96934483000000 -1.86735717805152
1.41977991000000 1.67015840000000 118.28790218000000 -1.86748028944226
0.79915684000000 1.72447450000000 102.57610345000001 -1.86749253433084
1.14979298000000 1.63673012000000 115.00021864999999 -1.86711656029968
0.96396346000000 1.78235415000000  89.47995926999999 -1.86768760982864
0.93274850000000 1.79190807000000  95.32895077000001 -1.86772952942545
0.97730783000000 1.98572440000000  89.58444090000000 -1.86825000484043
0.73062297000000 1.68965095000000  97.05175133000000 -1.86736945304438
1.09622617000000 1.67161247000000  68.85385931000000 -1.86665897839544
0.99450103000000 1.89374871000000  96.19896314000000 -1.86803572955000
1.19443721000000 1.76127599000000 107.93222335999999 -1.86769630392826
1.36590275000000 1.68642815000000  63.58400481000000 -1.86668017031514
1.06169368000000 1.52966182000000 113.13364464000000 -1.86647155848732
1.02884308000000 1.82221736000000  99.63289928000000 -1.86783972888213
1.19578899000000 1.68153495000000 108.21093779000000 -1.86738299201022
0.95501915000000 1.72259061000000  70.57155002000000 -1.86687423906085
1.27844880000000 1.70120896000000 135.98683292000001 -1.86749089901957
1.04836230000000 1.84057791000000  97.59854729000000 -1.86790262978695
0.96891078000000 1.80994539000000  94.36773884000000 -1.86778944547098
1.14184952000000 1.68518836000000  88.87784761000000 -1.86740864004639
1.27869078000000 1.46891889000000 102.78908333000000 -1.86621953957967
0.98262701000000 1.47756524000000  86.28147238000000 -1.86609013347731
1.28690700000000 1.85912549000000 102.06736653000000 -1.86806207293216
1.49164789000000 1.86071077000000 103.40661912000000 -1.86816244772513
1.14902386000000 1.58749219000000 103.34624282999999 -1.86692261396809
0.98440035000000 1.72040012000000  68.93763319000000 -1.86679956032606
0.96566596000000 1.41661072000000  94.03275087999999 -1.86566124220894
0.95220466000000 1.77876348000000  95.56424625000000 -1.86769231345579
1.11335351000000 1.67622802000000 113.47229716000000 -1.86728517630866
0.80778455000000 1.62978352000000 101.71408676000000 -1.86711190114374
1.40830703000000 1.73391682000000 105.55843985999999 -1.86772893957368
1.12376761000000 1.74738128000000 100.47810242000000 -1.86762775361319
0.97675960000000 1.77481323000000  83.06787627000000 -1.86758947198109
1.18294664000000 1.68045096000000  81.11644963000001 -1.86731715411429
1.10077293000000 1.74667313000000 102.15404195000001 -1.86761132929178
0.93210016000000 1.65533028000000  95.50959562000000 -1.86724647047765
0.89328390000000 1.63818691000000 119.15004544999999 -1.86700199525706
1.07685979000000 1.45548200000000 100.10406636000000 -1.86602417797110
1.01559335000000 1.75181774000000  94.26976962000001 -1.86761931426724
1.00442671000000 1.78885727000000  80.96649171000000 -1.86760992180268
1.08040481000000 1.56645734000000 101.25534473000000 -1.86679316434231
0.94331591000000 1.74282477000000  73.91911183000001 -1.86713708933837
0.99880366000000 1.74994094000000  82.77364967000000 -1.86750675727239
1.12465577000000 1.66641438000000  85.48176377999999 -1.86729951277641
1.06882203000000 1.87422898000000 103.06199832000000 -1.86800644066705
0.96306363000000 1.63522434000000 116.36872405000000 -1.86701379443491
0.95985852000000 1.66848967000000  68.88999560000001 -1.86650110554763
1.19900271000000 1.62939170000000 108.71419262000001 -1.86714247259965
0.97344639000000 1.86080277000000 109.64742493999999 -1.86791380381578
1.08156903000000 1.84391462000000 106.94811811000000 -1.86791448991653
0.91506764000000 1.56525999000000  77.16091082000000 -1.86627931644659
0.89851713000000 1.80515746000000  92.47239114000000 -1.86775858671865
1.22395162000000 1.69337075000000  85.65607639000000 -1.86745069413541
0.94748972000000 1.65229383000000  75.87297572000000 -1.86677024029859
0.99094119000000 1.83426412000000  69.23326295000000 -1.86737850943723
1.05578365000000 1.47685906000000 105.89981529000001 -1.86614114462259
0.90169332000000 1.64140391000000  65.53156715000000 -1.86614789110070
1.42138535000000 1.67236174000000 115.05970682000000 -1.86749312782308
0.95362000000000 1.79925711000000 101.48082021000000 -1.86774487155776
1.01306802000000 1.80429803000000  87.63664592000001 -1.86775619781758
0.77769820000000 1.56516962000000 104.88278406000001 -1.86676017640127
0.82089090000000 1.69854155000000  76.36159848000000 -1.86692950668646
1.00414235000000 1.66169326000000 143.42495352000000 -1.86701705007579
1.15392764000000 1.69033473000000 102.88277970000000 -1.86741622346733
1.17849812000000 1.71754434000000  98.44986717000000 -1.86754574852375
0.74107641000000 1.65509924000000  87.76418212000000 -1.86707843608883
1.38356186000000 1.72610810000000 109.77612943000000 -1.86768640677030
1.46006368000000 1.70224478000000 124.62325629999999 -1.86764800641276
0.79975899000000 1.69021714000000 105.64599988000001 -1.86734636136282
1.00850959000000 1.82274474000000 110.11996590000000 -1.86780353526012
0.71757648000000 1.67260110000000  76.62399793000000 -1.86673159680345
0.94566425000000 1.65551765000000 140.11816585000000 -1.86696576125075
1.08206470000000 1.85318995000000  99.79390081000000 -1.86795161071916
1.10142073000000 1.73009324000000 101.85872132999999 -1.86755229597281
0.97737667000000 1.95166281000000 120.65286216000000 -1.86818365013653
0.95403153000000 1.92949462000000  55.24656952000000 -1.86705069694676
1.18190166000000 1.64076197000000  95.39861664999999 -1.86723850247461
1.02938005000000 1.71788838000000  86.53822379000000 -1.86746755214472
1.14033294000000 1.66520446000000 101.89092581000000 -1.86730755666076
1.05236135000000 1.75814232000000  86.17100846000000 -1.86761220309484
0.96936874000000 1.62720211000000  68.96945642000000 -1.86629488992048
0.95628374000000 1.81592480000000 103.64836344000000 -1.86778999689682
0.93293781000000 1.62432382000000 142.18805067000000 -1.86676463627248
1.02088894000000 1.50572315000000 104.07324513000000 -1.86636469516895
0.77489912000000 1.70418800000000  70.94949305000000 -1.86666356109367
0.93449355000000 1.46380161000000  86.77882305000000 -1.86594472109152
1.01510808000000 1.60880598000000  72.26333984999999 -1.86641140843301
0.96107903000000 1.70061761000000 114.45650623000000 -1.86731714640678
0.77372017000000 1.70917524000000  93.73374317000000 -1.86743162260029
1.07665967000000 1.77185835000000 115.48429812000001 -1.86763994687658
1.10485749000000 1.68188016000000  61.12010708000000 -1.86632588839529
1.40533011000000 1.62996044000000 109.65727792000000 -1.86729350447229
1.06214575000000 1.77147436000000 102.93725190000001 -1.86768015814516
0.97122715000000 1.81088016000000 100.54276016999999 -1.86778725275985
0.98735615000000 1.50948718000000  99.00897094000000 -1.86643435488520
1.17248089000000 1.76736780000000 103.61478993000000 -1.86771379254083
0.92896562000000 1.57318896000000  70.24715230000000 -1.86601591417752
0.98812359000000 1.51240338000000 104.70748755000000 -1.86640205309322
1.00767092000000 1.86090834000000 119.78527544000001 -1.86790123750211
1.02052929000000 1.69790609000000 136.67272933999999 -1.86723259137091
0.89664889000000 1.66543639000000  95.64742402000000 -1.86728473497305
1.12693773000000 1.58998558000000  99.40819336000000 -1.86695137146035
0.96089384000000 1.70206730000000 105.59650635000000 -1.86738567541238
0.96439159000000 2.00112186000000 103.81295115000000 -1.86831865430759
0.84503874000000 2.00819259000000 105.54455722000000 -1.86831719032409
1.48811548000000 1.65600242000000  97.82867478999999 -1.86745878473027
1.05437433000000 1.68345283000000  97.92948642000000 -1.86737377569045
0.82280969000000 1.65619762000000  74.33948487000001 -1.86659351382991
1.15173867000000 1.69662375000000  95.80542968000000 -1.86746046917972
0.86647903000000 1.75196283000000 121.34589157000001 -1.86746250113117
0.67647433000000 1.72901471000000  89.67095834000000 -1.86743962779474
1.04948938000000 1.66039188000000  99.32839011000000 -1.86727030103305
0.99317752000000 1.75027150000000 102.35189200000001 -1.86758836950116
1.00119359000000 1.79931818000000  76.84216220000000 -1.86753854988751
1.19175136000000 1.81225504000000 100.67322145000000 -1.86787351265707
1.00298692000000 1.62902926000000  70.44903954000000 -1.86641624724564
1.37096420000000 1.63558685000000 101.60108722000000 -1.86730357701344
0.96765006000000 1.75907907000000  83.18545014000000 -1.86753183902067
1.20469328000000 1.65254848000000 101.77145580000000 -1.86728219931422
0.99616055000000 1.67493478000000 128.18932203000000 -1.86714244705661
1.08201793000000 1.69466226000000 115.43451277000000 -1.86733689842458
1.05278139000000 1.68511956000000 125.74300122000000 -1.86723103673910
0.92631226000000 1.82531662000000 115.68562980000000 -1.86775999407450
1.28968322000000 1.62338241000000 107.57399429000000 -1.86717978288084
0.74303788000000 1.72035121000000  79.56821889000000 -1.86713230164014
0.97979674000000 1.82674875000000  93.55479505000000 -1.86783983532666
1.45903045000000 1.69262610000000 115.03846865000000 -1.86760580895941
1.33294974000000 1.69185746000000 132.82749677999999 -1.86750206562783
0.86379107000000 1.72467885000000 110.87896809000000 -1.86743107810662
0.95998075000000 1.75107782000000  93.54594833000000 -1.86760416454797
1.13651214000000 1.79591964000000 109.83660251000001 -1.86777970431888
1.31045316000000 1.92681482000000 104.75632010000000 -1.86827038650040
1.11725315000000 1.88480472000000 103.73738208000000 -1.86805874535776
1.09133052000000 1.67695603000000  70.59681878000001 -1.86677989781026
0.96999938000000 1.61770377000000 110.50484839000001 -1.86697275552513
0.97314078000000 1.66339734000000 106.48890049000001 -1.86722048751210
0.99058081000000 1.47067464000000  91.80972079999999 -1.86614412473227
1.01485965000000 1.63150709000000  81.36078366000000 -1.86696614767106
0.79358623000000 1.88904087000000 100.43067575000001 -1.86800559123651
1.25019514000000 1.70225374000000 106.54728157000000 -1.86750879677277
1.00095782000000 1.61234273000000 124.66189469000000 -1.86686014187205
0.86314758000000 1.74952374000000 116.56741312000000 -1.86748365575738
0.88879255000000 1.63113975000000 119.95771959000000 -1.86696254378023
1.19891271000000 1.69712345000000 126.17720509000000 -1.86740218656894
0.89168118000000 1.71053358000000  91.96260334000000 -1.86744583062261
0.97609062000000 1.58885122000000  86.63189192000000 -1.86685732206479
1.14741503000000 1.62553838000000 114.59388925000000 -1.86706122768271
0.96992462000000 1.97087514000000 125.49070465000000 -1.86824069210058
1.26238661000000 1.70803190000000 113.72008903000000 -1.86752489698938
0.86992111000000 1.74984500000000 117.18788121999999 -1.86748047198057
0.98882038000000 1.70637129000000  74.76435515999999 -1.86703933039257
1.00025679000000 1.54451838000000 134.85033995000001 -1.86638629047434
0.99529615000000 1.88549712000000 121.94304794999999 -1.86797372057197
0.97101797000000 1.72364346000000  97.79028674000000 -1.86750941863102
1.07909723000000 1.90894639000000 103.65650205999999 -1.86811139146732
1.00403125000000 1.56651777000000 116.96487190000001 -1.86665521221607
0.98848447000000 1.72370167000000 108.08409952000000 -1.86745821016837
1.02907604000000 1.71508542000000 104.24649823999999 -1.86745956257869
1.14933644000000 1.69255583000000 132.26391409999999 -1.86732838083844
1.45078284000000 1.63160213000000  95.79509242000000 -1.86732542902200
0.78045051000000 1.92967857000000 104.42294047999999 -1.86811684080283
0.95198128000000 1.78594896000000 109.34719026000000 -1.86766540440647
0.88434172000000 1.67399781000000  97.05993121000000 -1.86731775409567
0.92086934000000 1.80132438000000 120.14948398000000 -1.86765415221998
0.96084665000000 1.64727343000000 104.75343795000001 -1.86716126423880
1.13151873000000 1.68572759000000 124.57694380000000 -1.86729611675059
0.87127523000000 1.83790434000000 110.06466500000001 -1.86782071609116
1.08818948000000 1.66514557000000  85.40870767000000 -1.86727461203077
0.98754520000000 1.84822514000000  92.10035139000000 -1.86789936130390
1.10956616000000 1.55015395000000 101.44633742000001 -1.86670275497886
0.68509041000000 1.61953944000000  92.76641198000000 -1.86698256104251
1.11901154000000 1.54023627000000 104.36039973000000 -1.86662306263395
0.98200380000000 1.53388755000000 134.84359096000000 -1.86629991164523
0.85430119000000 1.80917607000000 113.93215521000000 -1.86770838358359
1.14379258000000 1.55767067000000  96.80340409999999 -1.86678985755429
0.78438550000000 1.70355859000000 125.67252497000000 -1.86726371449390
1.10368456000000 1.72467745000000  94.32207671000000 -1.86755064709894
1.26452488000000 1.70590914000000  87.64418067000000 -1.86752379645964
0.89547327000000 1.63877789000000 116.96663584000000 -1.86702071427840
1.01399488000000 1.77988908000000  77.91799695000000 -1.86750493437091
0.96513671000000 1.43368246000000 113.69065463000000 -1.86569859365261
0.98805854000000 1.54827099000000 112.62929486000000 -1.86656993102326
0.83677067000000 1.70403749000000  75.99339003000000 -1.86695359600810
0.95012498000000 1.90705700000000  94.71472181999999 -1.86805798598425
0.95195352000000 1.69098379000000 108.42905343000000 -1.86731955806204
1.00358453000000 1.95557797000000  92.80836248000000 -1.86819483290583
0.96293917000000 1.89666971000000  92.85441390000000 -1.86802863055982
1.15615289000000 1.73420624000000 110.81081111000000 -1.86756380026316
1.06672161000000 1.67078983000000  88.75145087999999 -1.86732392738884
0.98932039000000 1.92326387000000  84.38579910999999 -1.86805771453510
1.19192370000000 1.69731564000000  88.24460191999999 -1.86746926757553
1.05692302000000 1.69790408000000 100.09382263000001 -1.86742215814945
0.90492438000000 1.61669900000000 104.82630181000000 -1.86701681502404
1.35679518000000 1.71176894000000 121.30420936000000 -1.86760594553937
1.34352344000000 1.62260290000000 107.19249454000000 -1.86721617077637
1.07110142000000 1.63695590000000 118.43718120000000 -1.86705108243939
1.09037971000000 1.84466475000000 100.41610011000000 -1.86792928007901
1.40645664000000 1.79963558000000 106.10842459000000 -1.86794928418487
1.00270328000000 1.67536309000000 105.17065852000000 -1.86728692613337
0.84719853000000 1.60711337000000  88.66641162000001 -1.86691950199850
0.96925853000000 1.81604126000000 100.51513369000000 -1.86780266456617
1.09138392000000 1.68740519000000  59.37529604000000 -1.86627371590998
1.08880466000000 1.72010258000000  92.93271761000000 -1.86753009368351
0.99874898000000 1.56198973000000 100.59386780000000 -1.86675937155985
1.06514443000000 1.59320239000000 101.39628737000000 -1.86693755722229
1.11498040000000 1.70755446000000  59.38088520000000 -1.86636721956188
1.14435065000000 1.70018989000000  79.18991635000000 -1.86732315233792
1.09725080000000 1.78206979000000 105.85658382000000 -1.86772203665043
1.12669948000000 1.68253807000000 116.58268992000001 -1.86730697671157
0.85369340000000 1.69281720000000 103.20674434999999 -1.86736578670445
0.79025756000000 1.64678439000000 100.36872655000001 -1.86719475072130
1.09018555000000 1.81349089000000 103.49513896000001 -1.86782875920517
0.82683537000000 2.00736085000000  98.71897468000000 -1.86831065960087
0.85678106000000 1.76331866000000  96.37061941000000 -1.86763466169407
1.16580691000000 1.56974835000000 109.56321341000000 -1.86679644793639
0.97945654000000 1.87164602000000 127.95659292000001 -1.86790356437621
0.91996157000000 1.62946908000000  74.96076321000000 -1.86656507876069
1.14554771000000 1.71055205000000 105.26061030000000 -1.86748500423300
1.13402707000000 1.75174372000000  99.15658071999999 -1.86764978625820
0.93787172000000 1.89713862000000 127.56592198000000 -1.86796965677024
0.93193823000000 1.58989430000000 134.33011091000000 -1.86664005886223
0.84012321000000 1.69493831000000  70.79866413000001 -1.86664266454738
1.46218761000000 1.73965755000000 106.66705650000000 -1.86778134340750
0.96775296000000 1.87283496000000  73.08168677000000 -1.86768285983374
1.19998437000000 1.78683856000000 103.86080615000000 -1.86779401476588
1.27731881000000 1.81255139000000 103.28267682000001 -1.86791794397436
0.91799108000000 1.46724676000000  91.26485466000000 -1.86606873375672
0.91101461000000 1.90402172000000  94.31013260000000 -1.86804158106804
1.21527469000000 1.67178989000000  68.39506152000000 -1.86676205244078
0.84896832000000 1.63986810000000  85.09082952999999 -1.86699507299124
0.95017931000000 1.53879238000000 113.48188860000000 -1.86649843606688
0.97294415000000 1.71569905000000  77.51474555999999 -1.86719028351638
0.98672344000000 1.79293558000000  81.82593248000001 -1.86763266079572
1.05950204000000 1.62794190000000 121.23229519000000 -1.86698568688269
0.87576480000000 1.62585487000000 111.70022849000000 -1.86700260195141
0.86643287000000 1.78237058000000  93.34949494999999 -1.86768923685656
0.90919675000000 1.74281503000000 101.27032226999999 -1.86755659669893
0.98369313000000 1.55340573000000 115.00940344999999 -1.86658406870356
0.95180224000000 1.64853650000000 138.89841566999999 -1.86694056883198
0.89672567000000 1.83498700000000 107.19047698000000 -1.86782574606752
0.98083238000000 1.93739409000000  84.66755784999999 -1.86809545992764
1.20639749000000 1.52523329000000 100.70303490000001 -1.86658986099997
1.12431230000000 1.88391117000000 101.47522845000000 -1.86805894762279
1.01873845000000 1.95155775000000 108.26068551000000 -1.86820556556734
1.04774694000000 1.63223604000000  98.61468268000000 -1.86714789096163
0.95831321000000 1.80272992000000  90.76918397000000 -1.86775549930530
0.98951387000000 1.64823057000000 102.17952739000000 -1.86718823031981
0.95306469000000 1.79529921000000  86.34278107000000 -1.86769627087585
1.12450646000000 1.70263636000000 100.58450371000001 -1.86746124629394
0.97135025000000 1.57508404000000  91.17372644000000 -1.86684778676010
1.34628252000000 1.74381461000000  96.15311825000001 -1.86771556338920
0.91715728000000 1.70105476000000 101.30268768000001 -1.86740663084504
0.86290229000000 1.74383293000000 110.93011570000000 -1.86750126682500
0.84909840000000 1.72752176000000  69.44410714999999 -1.86675650697475
0.96415448000000 1.78971079000000  64.98235355000000 -1.86691204361273
0.99359349000000 1.85215569000000  99.95319666000000 -1.86791772667812
0.97108585000000 2.10150330000000  97.01456021000000 -1.86854464674411
1.00700169000000 1.76763923000000  90.61341241000000 -1.86765983380155
0.91611172000000 1.75929767000000 115.52116472000000 -1.86752822494168
1.05264730000000 1.81744839000000  98.69007563000000 -1.86783419324183
0.82295849000000 1.66531332000000  74.41999677000000 -1.86665018857900
0.95842506000000 1.90798163000000 103.10704186000000 -1.86806396701593
1.44826935000000 1.68597677000000 119.47181012000000 -1.86757029880221
1.11991535000000 1.63301569000000  95.20788473000000 -1.86718433247495
0.81910943000000 1.62533186000000 117.33817041000000 -1.86696348176758
1.16007634000000 1.70300443000000 126.80012540000000 -1.86739236240533
0.75506333000000 1.71526661000000  86.16880887000001 -1.86732701550545
0.99214402000000 1.64995457000000 143.39594500999999 -1.86694443393424
1.13352233000000 1.89413355000000 102.92592599000000 -1.86809312805485
0.95596486000000 1.54089951000000  71.13909090999999 -1.86589065925159
0.91819825000000 1.51818924000000  88.00846498000000 -1.86639652173346
0.79534376000000 1.70148348000000 112.99278357000000 -1.86733784082480
0.98241393000000 1.80377314000000  74.81220682999999 -1.86747596251223
1.27090985000000 1.66110103000000 116.47177487000000 -1.86732005106853
0.94169217000000 1.59213473000000 133.38519198000000 -1.86666684297938
0.90073321000000 1.93728357000000 102.43606668000000 -1.86813344389373
1.05986951000000 1.83381499000000  97.71984274000000 -1.86788652655218
1.36625325000000 1.56161123000000  99.08134861000001 -1.86691613640187
0.83676364000000 1.79136488000000  97.91728508999999 -1.86772167054357
0.96032517000000 1.70460245000000  59.49543426000000 -1.86624044326504
1.19394921000000 1.74901752000000 111.21839742000000 -1.86764352182263
1.32538841000000 1.59659062000000 103.96022280000000 -1.86707671024362
1.02543039000000 1.63974540000000 127.25566865000000 -1.86699669168456
0.91441287000000 2.01124804000000 107.24810585000000 -1.86833340411727
1.04265142000000 1.68468263000000 113.09165651000001 -1.86728690949485
0.97700095000000 1.71210167000000  72.01472201000000 -1.86691802206553
1.28532593000000 1.69821609000000 126.85272460000000 -1.86748568562052
1.21478674000000 1.83481542000000 102.32030820000000 -1.86795502854216
0.90666212000000 1.68964074000000 118.62226855999999 -1.86723509610317
0.93983532000000 1.68537927000000 143.89140194999999 -1.86709096363734
1.30063979000000 1.73926870000000  96.68982507000000 -1.86767943164557
1.29474455000000 1.68906543000000  87.68594537000000 -1.86747258423520
1.42738377000000 1.69678460000000 116.09229184000000 -1.86760014139566
1.03103162000000 1.66668264000000  89.53679357000000 -1.86729954056545
0.97462432000000 1.78046716000000  68.30328919000000 -1.86706095822262
1.14030710000000 1.63157251000000  99.17026663000000 -1.86716713814326
1.15878067000000 1.95175676000000 103.38717139000001 -1.86826600777613
0.99404410000000 1.66106222000000  64.32989696000000 -1.86627245764407
1.01350961000000 1.78461679000000 109.05513479000000 -1.86768157375445
0.90961170000000 1.73093073000000  82.98943894000000 -1.86738980458767
1.19183063000000 1.74331664000000 106.84732962000000 -1.86763148729653
0.86303660000000 1.81070473000000  94.73736298999999 -1.86777788721020
1.23376848000000 1.57581552000000 108.44174486000000 -1.86688263166775
1.02329777000000 1.80484351000000  88.31096574000000 -1.86776611333801
0.95226615000000 1.56359687000000 117.98897078000000 -1.86661953125144
0.88633591000000 1.68611939000000  72.15954600000001 -1.86670315715855
0.98762586000000 1.62726316000000 120.98313532000000 -1.86695153781204
0.95775728000000 1.84146063000000 102.82770558999999 -1.86787093975170
0.94408794000000 1.87973969000000 116.12160149000000 -1.86794347776811
0.92474176000000 1.60923923000000 118.86375629000000 -1.86686183845552
1.12380276000000 1.61928432000000 105.56774804000000 -1.86706525665454
0.96251256000000 1.52543411000000  98.34835566000000 -1.86654619618321
1.06557890000000 1.96119109000000 101.36895183999999 -1.86824862733079
1.09178301000000 1.85931616000000 104.22199086000001 -1.86797088655760
1.14108870000000 1.61777182000000 100.10761302000000 -1.86709582252729
0.89865684000000 1.68906537000000  69.26855045000001 -1.86657475797176
0.84312214000000 1.62837974000000  98.61945466000000 -1.86711625371925
0.93886778000000 1.72457423000000  89.47286615000000 -1.86748899606687
0.81214457000000 1.56257177000000 103.95064216000000 -1.86674719360269
0.91190468000000 1.78792377000000 108.01537259000000 -1.86767269320501
1.04539243000000 1.59873201000000 109.50879861000000 -1.86689987135389
1.37067588000000 1.70753275000000  94.26923325999999 -1.86759297453432
0.92537237000000 1.72808125000000  98.36802199000000 -1.86751808302188
1.20264728000000 1.62789452000000 105.89139136999999 -1.86714932880921
1.05117906000000 1.63344445000000 124.24202181000000 -1.86699393893946
0.91402242000000 1.67850760000000 118.91332403000000 -1.86718632894042
0.91048777000000 1.53744148000000  86.69942275000000 -1.86648825878194
1.13232874000000 1.75549313000000  96.47373082000000 -1.86766518284344
0.98434977000000 1.79568914000000 112.66291635000000 -1.86769153904868
0.95111652000000 1.71685547000000  92.95074691000001 -1.86748483446343
1.04471725000000 1.79813098000000 107.35917145000001 -1.86774748168966
1.22477651000000 1.71016980000000 118.51347516000000 -1.86749401684688
1.08162213000000 1.76027700000000 114.55265113000000 -1.86760332175527
1.08283661000000 1.86155548000000  98.29390375000000 -1.86797629056070
0.90281423000000 1.70895065000000  59.08334929000000 -1.86620316661401
1.04175802000000 1.66228651000000  67.43221386000000 -1.86647508112719
0.96864354000000 1.71446126000000 130.24411017000000 -1.86729260518950
0.93785896000000 2.02366564000000 102.89164506000000 -1.86836775765164
1.13427741000000 1.77088637000000  98.92844655000000 -1.86771538769449
1.11197309000000 1.69451855000000  70.54091098000001 -1.86688839935505
0.98327293000000 1.64927645000000  93.87050705999999 -1.86722873081339
1.10588396000000 1.66012286000000 102.75534720000000 -1.86726701070950
0.93211956000000 1.84589655000000  85.11135941000001 -1.86783023865951
0.94041230000000 1.68982108000000 131.10242088000001 -1.86717198328984
1.47684542000000 1.70078787000000 116.98121451999999 -1.86765134588404
0.92591654000000 1.57057244000000 118.79098740000001 -1.86665171104221
0.86872037000000 1.50070579000000 105.20046684000000 -1.86632349280433
1.06171537000000 1.65116725000000 137.26629573000000 -1.86704011843142
0.92257576000000 1.85591869000000  82.72032449000000 -1.86782651166141
1.00083759000000 1.78747398000000  82.68736070999999 -1.86763707088846
1.00177332000000 1.61483162000000 123.32517874000000 -1.86688066000249
0.98625758000000 1.75296124000000 114.04637101000000 -1.86753150736627
0.94354507000000 1.89358259000000 112.89006702000000 -1.86799639789638
0.97200685000000 1.85559290000000  92.36863354000000 -1.86791688523999
1.02052323000000 1.60476730000000  72.83409541000000 -1.86642439695504
0.87468056000000 2.06308866000000 105.35126217000000 -1.86845624520333
0.96328436000000 1.58566365000000 134.77097685999999 -1.86662608270308
0.87649527000000 1.76959810000000 104.70338844000000 -1.86762887470661
1.08086211000000 1.74631306000000  98.67562973000000 -1.86761265431653
1.13779164000000 1.71157978000000 142.18809282999999 -1.86738521089615
1.14690759000000 1.67297593000000  95.73112395000000 -1.86736475108819
0.85264197000000 1.77711355000000 113.76817602000000 -1.86760083071670
0.83461964000000 1.53248026000000  94.71550348000000 -1.86656638748855
0.89364505000000 1.79500768000000  90.96776570000000 -1.86772024161576
1.06943874000000 1.42326207000000 101.67949568000000 -1.86572458079979
1.01407004000000 1.49610538000000  91.76459362000000 -1.86635400716500
0.87512818000000 1.72563298000000 123.08250515000000 -1.86735136433106
1.05749363000000 1.61609744000000 118.92051925000000 -1.86693675097558
1.06456286000000 1.69189689000000 135.78012745999999 -1.86724268643775
0.87910898000000 1.68613527000000 118.39153601000000 -1.86722179082403
1.15372936000000 1.57802003000000  98.10337263000000 -1.86690252657672
0.91549377000000 1.65800809000000 136.88196209000000 -1.86698524319070
1.21900819000000 1.67151060000000  86.92241624000000 -1.86737297943068
0.80498966000000 1.69860042000000  75.22484872000000 -1.86686392299350
1.18656920000000 1.76335386000000  96.23507351000001 -1.86771204319598
0.95639631000000 1.68987233000000  95.93719148000000 -1.86738790773245
0.83683463000000 1.76031689000000 114.55877853000000 -1.86753858794395
0.97778958000000 1.94210871000000  57.08657007000000 -1.86721653999496
0.97611193000000 1.82369116000000  76.95897839000000 -1.86761950469065
1.05608983000000 1.85691250000000  94.20007652000000 -1.86794926862081
0.71533949000000 1.68631332000000  78.20150047000000 -1.86687994623446
1.11756131000000 1.74048992000000 102.34115315000000 -1.86759545659015
0.98665265000000 1.67782478000000 117.79669767000000 -1.86720574441563
0.89055185000000 1.94627431000000 105.08266352000000 -1.86815437216762
1.14760776000000 1.76249330000000 111.34940228000001 -1.86766348234380
0.90432207000000 1.51933231000000 116.37920160000000 -1.86634677299060
1.26392357000000 1.86272336000000 100.30754994000000 -1.86805848182121
0.91467546000000 1.70324627000000 119.34636668000000 -1.86728722560281
0.85502682000000 1.71675022000000  74.04086761000001 -1.86694076077413
0.94794212000000 1.74084787000000 127.22533602999999 -1.86740310972880
1.06300211000000 1.74720605000000 115.60002255000001 -1.86753811363769
0.94639107000000 1.86659692000000 118.56108030000000 -1.86789355769406
0.92883770000000 1.89405937000000  97.16415144000000 -1.86802144947296
0.77970497000000 1.61478844000000 103.73208484000000 -1.86703133397418
0.99896217000000 1.59578419000000 124.87386825999999 -1.86677075067178
0.85576882000000 1.49814751000000 112.16624032000000 -1.86623711494451
1.30393001000000 1.68484463000000 129.02796832000001 -1.86744367676545
0.90932852000000 1.72963148000000  73.72252637000000 -1.86703460284207
0.98321250000000 1.91752299000000 116.64006211000000 -1.86808066948424
0.95219717000000 1.75061435000000  99.83669123000000 -1.86759284740731
1.18026992000000 1.72588178000000  91.86271945999999 -1.86757829587600
0.96527864000000 1.58896469000000 139.71930904000001 -1.86659288920748
0.96316227000000 1.91528675000000 108.76085246000000 -1.86807783210520
1.21956179000000 1.66143310000000 111.57814030000000 -1.86729747584684
1.08040611000000 1.72925138000000  89.31155013999999 -1.86754993154591
1.10114160000000 1.66777644000000  88.58016661000001 -1.86732346283088
0.78055639000000 1.74583998000000 111.09944965000000 -1.86752192866459
0.87347024000000 1.99136611000000 101.47486691000000 -1.86827340281741
1.03774359000000 1.70208103000000 111.15091682000001 -1.86736987764232
1.03597351000000 1.70471853000000  93.84705280000000 -1.86746056072423
1.15767149000000 1.50501712000000  99.64709870999999 -1.86643556021318
0.98428212000000 1.55306814000000  72.10199050000000 -1.86603476634525
0.93030134000000 1.62369747000000  73.41385077000000 -1.86646201610995
0.93121136000000 1.71445071000000 113.11963933000000 -1.86737672130732
1.37496155000000 1.68411448000000 110.71991303999999 -1.86751318696372
0.92282713000000 1.64051872000000 138.08324897000000 -1.86688909661700
1.14386315000000 1.65187582000000  93.57232721000000 -1.86727929171184
1.10163119000000 1.80553301000000 110.35354336000000 -1.86779132934419
0.95774332000000 1.73792412000000 100.76897627000000 -1.86754628584902
1.24943240000000 1.83697504000000 104.10672862000000 -1.86798015851650
1.14313481000000 1.70603484000000  72.11950003000000 -1.86706269866465
1.25411086000000 1.64715471000000 111.38247699999999 -1.86725693478343
1.01824842000000 1.75973830000000  99.19292265999999 -1.86763868898583
1.03562659000000 1.60182289000000  93.90251100000000 -1.86701756433547
1.36767871000000 1.56312963000000 104.09011416000000 -1.86692105271629
1.18977631000000 1.84289182000000 107.36877954000001 -1.86796762458846
1.00464491000000 1.49400314000000 115.30574566000000 -1.86619071336861
1.35012159000000 1.67910929000000 122.47753702000000 -1.86746056827633
0.94285033000000 1.65849844000000 133.21189498999999 -1.86701921886220
1.05232276000000 1.41075630000000 111.04758158000000 -1.86553516362187
0.95301278000000 1.77915316000000 116.36419402999999 -1.86760339741625
0.97150783000000 1.55249134000000 100.90096538000000 -1.86669884075832
0.95955816000000 2.07221474000000 105.28346741000000 -1.86849658361939
0.91033771000000 1.72080154000000 104.52105342000000 -1.86746026532410
1.17563996000000 1.69729926000000 136.41919741999999 -1.86737058542712
0.79052813000000 1.94146937000000  99.70145863000000 -1.86814776531003
1.33091416000000 1.70021853000000  71.76488801000001 -1.86720456675459
0.99653796000000 1.79492483000000 115.77858141999999 -1.86767931100815
0.78996241000000 1.77474107000000 105.26426992000000 -1.86765258431365
1.21527498000000 1.81652150000000 107.07933590000000 -1.86789789228874
1.03268964000000 1.69361612000000  83.32078321000000 -1.86732168348954
1.16356056000000 1.69149322000000 113.18464742000000 -1.86738554081478
1.02299114000000 1.73076510000000  73.93318300000000 -1.86714960968868
1.12991729000000 1.57942938000000 102.08414506000000 -1.86687743173627
1.04762733000000 1.72503358000000 126.99752300000000 -1.86739519610819
0.96492083000000 1.73376559000000  91.53284771000000 -1.86754162892021
0.75038368000000 1.67262655000000 115.29366263999999 -1.86721590128286
0.95967195000000 1.81615295000000 121.21537313000000 -1.86771542498400
0.99070687000000 1.81459173000000  76.40623653999999 -1.86757721474976
0.96483168000000 1.68860969000000 107.20725858000000 -1.86732067025014
1.01971691000000 1.82033620000000  92.18269275999999 -1.86782857447270
0.98716689000000 1.53480703000000  74.47548060000000 -1.86603064455846
1.06910143000000 1.69304258000000 102.94160171000000 -1.86739237330642
0.86089739000000 1.69539218000000  69.56619811000000 -1.86659500673420
0.91826030000000 1.67280547000000 114.24544666000000 -1.86719552466946
0.97098424000000 1.89475922000000 115.07613945999999 -1.86800520342092
0.91629203000000 2.01116891000000  92.59385652000000 -1.86831102908923
0.87846358000000 1.73078748000000 105.53624253000000 -1.86749022394588
1.00090993000000 1.63071103000000 100.85990891000000 -1.86711871656996
1.02410682000000 1.71772366000000  93.25129842000000 -1.86750451454532
0.94641058000000 1.81675713000000  63.11464969000000 -1.86693135363464
1.03442097000000 1.64844175000000 112.65547237000000 -1.86712333527112
1.07536080000000 1.73030936000000 103.48471172000001 -1.86753665690060
0.97660438000000 1.56966830000000  78.55692560000000 -1.86644776957655
0.96281612000000 1.73415758000000 104.61468710000000 -1.86751325302896
0.99339396000000 1.70367565000000 124.56654274000000 -1.86728247284486
0.99432438000000 1.70621792000000 108.25211097000000 -1.86739046820026
1.06606886000000 1.78447573000000 102.69305568999999 -1.86772613988251
0.95608335000000 1.44043775000000  82.83922256000000 -1.86562017304357
0.98381818000000 1.78306458000000 108.03837294000000 -1.86767088556951
0.89651812000000 1.69353257000000  77.38401634000000 -1.86701176209078
1.20421541000000 1.66538317000000  91.22969662000000 -1.86735642596079
1.13012924000000 1.71538538000000  86.15367829000000 -1.86749761350268
1.03497341000000 1.64220561000000 105.54880210000000 -1.86714414541575
0.93881673000000 1.56666818000000 112.33042964000001 -1.86667767528218
0.71527766000000 1.69669415000000  98.05593901000000 -1.86740063014304
1.07854593000000 1.70224887000000 119.36727279000000 -1.86734835197615
0.97820971000000 1.65216536000000 107.98330228000000 -1.86715936926441
0.94912589000000 1.56918108000000 109.74610520000000 -1.86671473902311
1.43883438000000 1.66935299000000 111.37044605000000 -1.86749528590929
0.98858299000000 1.73572036000000 101.59840756000000 -1.86753978612239
1.05266434000000 1.61422242000000 108.06087173000000 -1.86699405303727
1.08115550000000 1.82256000000000 102.84119637000001 -1.86785486165002
0.68644959000000 1.70734472000000  79.69946105000000 -1.86704823247965
1.18914644000000 1.75808944000000  95.66746596000000 -1.86769520697692
0.97521815000000 1.44396535000000  98.26427579000000 -1.86592012763322
0.80694414000000 1.70732655000000 111.50524605000000 -1.86736906324688
0.99255251000000 1.44363443000000  88.95064302999999 -1.86586813589417
0.99152322000000 1.73192022000000  83.58609328000000 -1.86745280824744
0.98094529000000 1.60659845000000 119.55544387000000 -1.86685345798571
1.14696415000000 1.52767965000000  97.27391720999999 -1.86660135563693
0.87459062000000 1.64001929000000 126.73021036999999 -1.86695816195765
0.97090900000000 1.56908280000000  75.70909093000000 -1.86629647041673
1.21404792000000 1.65870999000000  89.40555582000000 -1.86732927733692
1.06157966000000 1.58653248000000  90.27188219000000 -1.86693872630974
0.95804699000000 1.43430685000000  74.72515253000000 -1.86527229663295
1.34750013000000 1.63755573000000 108.87173769000000 -1.86728807659449
0.95515685000000 1.86118987000000  91.86372376000000 -1.86792681784686
0.80253363000000 1.73904090000000 113.15836643999999 -1.86747787982313
1.00254234000000 1.64408587000000 107.02606256999999 -1.86713411223673
0.88142927000000 1.98495039000000 107.28929246000000 -1.86825729240854
0.98464747000000 1.89477397000000 117.38488509000000 -1.86800695767306
1.21668275000000 1.65372632000000  88.24989474000000 -1.86730566404924
0.86310978000000 1.83872052000000 101.59510212000001 -1.86785513332575
0.94214417000000 1.73778784000000  97.83217153000000 -1.86755463720078
1.14619977000000 1.66054678000000  80.47790719000000 -1.86719056704862
0.98600623000000 1.73256490000000  70.76947939000000 -1.86696422552598
0.97033735000000 1.68397336000000 119.64602671999999 -1.86721584849101
0.85831121000000 1.89494752000000 104.20698616999999 -1.86801049601138
1.47692154000000 1.53720344000000 100.19057012000000 -1.86684234198424
0.73070654000000 1.73212020000000  85.56365884000000 -1.86737526181491
1.00296952000000 1.70809469000000  80.81594468999999 -1.86729623302074
0.93020458000000 1.71759471000000 113.13031724000000 -1.86738884312956
1.44160826000000 1.92508403000000 102.55994809000001 -1.86831424020625
0.96478624000000 1.93886357000000  93.00533362000000 -1.86814126148988
0.84743824000000 1.57268646000000 106.20928462000001 -1.86677959719475
1.20045485000000 1.68337291000000 141.98304075999999 -1.86732055066977
0.87830273000000 1.80107747000000 114.46995367000000 -1.86767791586658
0.74266235000000 1.73034435000000 111.08218974000000 -1.86747744800300
0.71850033000000 1.71317710000000  97.38546085999999 -1.86746242248830
1.32748781000000 1.74200503000000  97.88032280000000 -1.86770379763948
1.02799607000000 1.70813411000000 145.81736759000000 -1.86725192016218
0.79440832000000 1.81321234000000 105.76492412000000 -1.86777181408218
1.02909553000000 1.79922858000000  93.04906530000000 -1.86777066923219
0.89473482000000 1.84569350000000 100.41136530000000 -1.86787912072589
1.01370048000000 1.76277437000000 112.07659341000000 -1.86758918424391
0.95628190000000 1.70455338000000  85.39185845000000 -1.86736405520446
0.97896014000000 1.54127146000000 120.87589430000000 -1.86647150321176
0.87549386000000 1.82109284000000 109.87611022999999 -1.86776849800299
0.94367471000000 1.68276737000000 148.17363817000000 -1.86705044535699
1.09464366000000 1.71654922000000  96.53603776999999 -1.86751569538535
0.90405928000000 1.51982564000000 104.82340985000000 -1.86645562667309
0.67862685000000 1.57393936000000  96.67448047000001 -1.86678787484220
1.05889124000000 1.77597916000000  93.30870754999999 -1.86770804206878
0.93994990000000 1.76751394000000 115.42814738000000 -1.86756311638499
0.98803951000000 1.51213934000000 145.11400351000000 -1.86590015333456
0.96351617000000 1.49009461000000  86.69012879000000 -1.86618620711488
1.08062804000000 1.69894510000000 146.25674434999999 -1.86725446600724
0.69156221000000 1.47498474000000 102.98835072000000 -1.86616401411800
1.16768957000000 1.63135053000000  98.71253331000000 -1.86717840206859
1.01784447000000 1.88346318000000 100.45602409000000 -1.86801545209835
1.12310459000000 1.91016068000000 104.25744318000000 -1.86813491645910
1.06767501000000 1.66225028000000  94.17837917000000 -1.86730165177801
1.06808742000000 1.64611720000000 129.25726275000000 -1.86704741092387
0.98710567000000 1.53835967000000 119.35584444000000 -1.86646453622404
0.93656839000000 1.91411666000000  87.06064730000000 -1.86804070256164
1.06642397000000 1.53943137000000 105.74761789999999 -1.86658796138136
0.78226842000000 1.69791596000000 110.89129180000000 -1.86734258044510
0.98365771000000 1.71148791000000  81.83315048999999 -1.86732580088596
0.90647210000000 1.67214963000000  94.02474986999999 -1.86731085897372
1.15900064000000 1.44480342000000 104.09864460999999 -1.86593851841599
1.03935190000000 1.62677337000000  93.14624139999999 -1.86713993921194
1.02401835000000 1.58101670000000 122.79417581000000 -1.86671192803942
1.08201512000000 1.60259385000000 109.45750537000001 -1.86693520833091
0.95880074000000 1.51267584000000 108.90390257000000 -1.86636219062268
0.82007206000000 1.91878202000000  99.23324547000000 -1.86808292881040
0.96190142000000 1.84247461000000  75.79048318000000 -1.86764842250477
1.06271761000000 1.95087894000000  98.66826687000000 -1.86821649587057
0.93915345000000 1.77176846000000  74.01582639999999 -1.86727516840233
1.04067540000000 1.81302321000000 101.27833532000000 -1.86781236989930
0.96204569000000 1.61683122000000 126.96685948000000 -1.86685556328302
1.28443291000000 1.77384739000000 104.26393964000000 -1.86779598922794
0.97218387000000 1.59016437000000  81.51462659000001 -1.86670048640485
1.02233682000000 1.75266599000000  93.73291654000001 -1.86762352271649
0.91210121000000 1.66325285000000 117.58188670000000 -1.86712870508802
1.11329380000000 1.70233816000000  91.99655364000000 -1.86747223799250
0.95630030000000 1.63046764000000  91.56507130999999 -1.86713017209172
1.01505788000000 1.95952542000000  93.50227457000000 -1.86821081317589
0.96702476000000 1.72059684000000 133.82013642999999 -1.86730506148592
1.03166076000000 1.63428023000000 106.21524798999999 -1.86710078523447
0.88260714000000 1.66025080000000  74.95458334000000 -1.86670206041947
1.03838091000000 1.98733881000000  96.41472996000000 -1.86829752049266
0.97205082000000 1.71040123000000  71.99195306999999 -1.86690331805391
1.11992688000000 1.44178696000000  98.96239128000001 -1.86592907996408
0.79488465000000 1.69291977000000  90.66760781000001 -1.86733856083458
0.98698173000000 1.74349356000000  89.64612839000000 -1.86757009534347
0.99064534000000 1.89959640000000  91.54271783000000 -1.86803940574293
1.16746744000000 1.60637441000000 107.40561384999999 -1.86701172165635
0.98439640000000 1.62989820000000  90.80745330000001 -1.86713130207613
0.97619240000000 1.76772715000000 109.81068395000000 -1.86760599515662
1.20119890000000 1.92260320000000 101.25921518000000 -1.86820136116557
0.95552891000000 1.63552324000000  95.05513293999999 -1.86716311218220
1.07772918000000 1.70525315000000  67.60114746000001 -1.86673838612842
1.20252222000000 1.78292282000000 103.18750032000000 -1.86778275511620
0.90884263000000 1.65508531000000 121.52268285000000 -1.86706462196719
0.98938830000000 1.61108922000000  93.53439604000000 -1.86705379149930
1.04230264000000 1.78462120000000  91.16787594000000 -1.86772519267083
0.68345377000000 1.88827205000000 103.01730935000000 -1.86804691611894
0.97719294000000 1.66138776000000 106.75383811000000 -1.86721017294974
1.20776286000000 1.69714956000000 119.51213693000000 -1.86742232325707
1.34310772000000 1.67370902000000  89.12326919000000 -1.86743655735950
0.94654078000000 1.52684659000000 119.51771846000000 -1.86637963045541
1.28117152000000 1.63835837000000 111.84282600000000 -1.86723390696068
1.27200693000000 1.65898983000000 101.80613122000000 -1.86734836581218
0.83350734000000 1.64235792000000 109.68919637000000 -1.86710476509995
1.26103022000000 1.72563761000000 104.13857502000000 -1.86761049846075
0.93174938000000 1.51535150000000  92.52719521000000 -1.86646566801335
0.91437741000000 1.71726786000000  58.26398799000000 -1.86621675828258
0.78986658000000 1.72507142000000 108.96512487000000 -1.86745832139229
0.97639674000000 2.05842020000000 111.86493650000000 -1.86848268341157
0.84584608000000 1.74668239000000  91.38708846000000 -1.86756026751959
1.08543088000000 1.64541187000000 130.16677693000000 -1.86705404902762
1.01815887000000 1.55919847000000 120.67761392000000 -1.86659541325400
0.94482568000000 1.64119986000000  96.90542492000000 -1.86718382858578
0.89558005000000 1.58925578000000  86.75442993000000 -1.86680396739962
0.91569603000000 1.55226827000000  83.36628847000000 -1.86647671717935
1.01587490000000 1.64220610000000  59.20986510000000 -1.86603734881282
1.07196268000000 1.66015841000000 114.90241732000000 -1.86718119806790
1.07626833000000 1.92421028000000 103.71470078999999 -1.86815343941373
0.86689550000000 1.83986736000000 100.22374524000000 -1.86786138361094
1.18151395000000 1.67921639000000 112.08417052000000 -1.86734878064624
1.10492028000000 1.92851420000000 105.84616145000000 -1.86817942699463
0.74492799000000 1.67904618000000 118.84233223000000 -1.86722121319383
0.96553896000000 1.74321603000000 113.90767196000000 -1.86748916115164
0.95819484000000 1.83993529000000  94.08840727000000 -1.86787365059467
0.89076684000000 1.69604355000000 109.06180768000000 -1.86733248239602
0.75002145000000 1.70747346000000 121.67033394000001 -1.86731867820401
1.18342310000000 1.60492802000000 104.07175135000000 -1.86702969930661
1.11300055000000 1.79074612000000  96.32713241000000 -1.86777340377512
0.99993394000000 1.78797962000000  92.61229263000000 -1.86772779195155
0.90108560000000 1.72123152000000  91.30177549000000 -1.86748201834882
0.89757750000000 1.63463735000000 101.33481861999999 -1.86713064618095
1.22899751000000 1.72858164000000  89.06695442000000 -1.86759712468677
1.29085880000000 1.43038699000000 100.10589324000000 -1.86591230956799
0.97540579000000 1.93359590000000 119.86297738000000 -1.86812492592765
0.89297920000000 1.71356231000000 113.74466837000000 -1.86736624109301
1.25409091000000 1.78660329000000 102.19962631000000 -1.86782177356542
1.23418303000000 1.67827306000000  71.42735681000001 -1.86698958516990
0.95672705000000 1.58358090000000  72.12804273000000 -1.86619058850954
1.17253039000000 1.69437858000000 132.43421139000000 -1.86735856787129
1.32706816000000 1.68866019000000 139.38333900000001 -1.86747930458091
0.98307283000000 1.89389482000000  90.93757805000000 -1.86801961265201
1.03173064000000 1.66878075000000 106.22111246999999 -1.86725858571344
1.03132364000000 1.61035357000000 103.46465556000000 -1.86700367154060
1.08430838000000 1.59177637000000 109.72836979000000 -1.86687602161123
1.19306910000000 1.70148794000000  63.41297618000000 -1.86658939261747
1.08683799000000 1.67638396000000  93.47170556000000 -1.86736506352099
0.96969205000000 1.57793758000000  80.32992127000000 -1.86657357840863
1.00614146000000 1.73400790000000  80.37139053000000 -1.86739205949016
0.94048011000000 1.67744806000000  69.14602232000000 -1.86654360140415
0.80964821000000 1.68633376000000 105.07118868000001 -1.86733333692086
1.31043368000000 1.62647472000000 103.19863766000000 -1.86721938118194
0.90139235000000 1.89504392000000 104.29842223000000 -1.86801340971579
1.26991130000000 1.70022746000000 124.77531488000000 -1.86748137816403
0.91138650000000 1.96412085000000 112.43433878000000 -1.86820052610642
0.98913845000000 1.71007940000000  81.11651620000001 -1.86730341404086
1.30098092000000 1.65361405000000  92.58659915000000 -1.86734396986265
0.80535552000000 1.68541854000000 124.20011830000000 -1.86719086896790
0.83924357000000 1.79178281000000  99.39266338000000 -1.86772091190880
1.03356372000000 1.90153617000000  95.18692071000000 -1.86806766615109
0.98578843000000 1.52084953000000  75.68643421000000 -1.86599041175418
1.01905340000000 1.50471367000000 119.22106787000000 -1.86625235229189
1.11298098000000 1.70186857000000 109.18904172000001 -1.86741597973469
1.18984317000000 1.70849167000000  99.28153786999999 -1.86751488331970
1.06261360000000 1.68800521000000  91.19956290000000 -1.86740192665070
0.99729336000000 1.94130767000000 109.49657852000000 -1.86816636035030
0.99359483000000 2.16746636000000 100.51873817000001 -1.86869491474829
1.31947640000000 1.49737297000000 101.00431474000000 -1.86646629757206
0.73912297000000 2.04947144000000 104.69594424000000 -1.86844496165315
1.04029045000000 1.61598773000000  92.61312771999999 -1.86708890536693
1.52396084000000 1.72381756000000 109.23014197000001 -1.86776253722962
0.88110247000000 2.08410518000000 102.52346751000000 -1.86850136393082
1.05467296000000 1.63556287000000 100.69109915000000 -1.86715192422616
0.99677098000000 1.82584980000000 113.83982426000000 -1.86779461019125
0.77734731000000 1.77021533000000  98.89923450000001 -1.86765914553291
1.12293288000000 1.71365725000000  71.94332987999999 -1.86706886822583
1.39377023000000 1.57495608000000 101.92224471999999 -1.86700941526021
1.01246152000000 1.71001512000000 102.54868897999999 -1.86744522196705
1.04333587000000 1.62965425000000 105.76156443000001 -1.86708500123052
0.95313926000000 1.72064964000000 103.90707915000000 -1.86746667562988
0.92364488000000 1.81897367000000  77.26882094000000 -1.86758345522037
1.03781136000000 1.49983513000000  99.52391021000000 -1.86636688342867
1.07067775000000 1.65850585000000 100.83891149999999 -1.86725892113861
0.95382653000000 1.54974511000000 118.62934179000000 -1.86653229020374
0.97758830000000 1.65784031000000 143.24281525000001 -1.86697773325830
1.41613850000000 1.67227733000000 110.66339861000000 -1.86749233684009
1.26278443000000 1.78798382000000 100.01975621000000 -1.86782925001296
1.35619121000000 1.55174493000000 102.36863269000000 -1.86684781169072
1.43424420000000 1.65075931000000 112.18009177000000 -1.86740906167688
0.88555917000000 1.89835839000000 100.28969001999999 -1.86802687837610
1.10889032000000 1.88819440000000  99.40753691000000 -1.86806351677819
0.90467666000000 1.59586860000000  87.51889201000000 -1.86686816553447
0.99273996000000 1.96836238000000 114.81010442000000 -1.86824291511709
1.00474460000000 1.69655413000000  76.52737396000001 -1.86708744476391
1.10611178000000 1.71951482000000 104.31354764000000 -1.86750492782062
0.86379985000000 1.78526920000000  89.72166368000001 -1.86767595571052
0.90983867000000 1.74079054000000  84.75205775000001 -1.86746833135294
0.99055757000000 1.87205409000000  93.41345937000000 -1.86797016322021
0.86522061000000 1.70604125000000 102.51662500000000 -1.86741940851005
0.86740000000000 1.65174339000000  81.01385540000000 -1.86692423154898
1.04450437000000 1.61638891000000  81.48854163999999 -1.86691860839255
1.26936723000000 1.90509744000000 103.19778503000001 -1.86818752520765
1.11470641000000 1.63368807000000  93.74518562999999 -1.86718994661373
1.12139841000000 1.67898236000000  67.86707946000000 -1.86666707795439
1.12913319000000 1.54810595000000  97.82045302000000 -1.86672175637807
1.09751369000000 1.80581263000000 101.41860380999999 -1.86781104126828
0.96081235000000 1.77161760000000  66.33207487999999 -1.86689496612735
1.07922770000000 1.74028753000000 103.43139918000000 -1.86757513352904
0.92710484000000 1.55143903000000 118.54160245000000 -1.86653983010967
0.99847886000000 1.86134569000000  92.45655613000000 -1.86794012064024
1.07700600000000 1.75826917000000 108.70454912000000 -1.86761781828386
0.78416288000000 1.57079387000000 110.64929672000000 -1.86674124288299
1.17593194000000 1.52222408000000 106.96943468000001 -1.86651921233158
1.13533499000000 1.79560960000000  99.25513728999999 -1.86779635567268
0.90415428000000 1.69266507000000 119.70748127000000 -1.86724029333470
1.12099635000000 1.95060836000000 103.19679583999999 -1.86824579460915
1.02421632000000 1.70043884000000 103.91487227000000 -1.86740298243740
0.93298664000000 1.84870838000000 111.02253903000000 -1.86785862589159
0.80780554000000 1.73587095000000  89.32984325000000 -1.86749093999526
0.73416889000000 1.69576459000000 132.24950962000000 -1.86721140549116
0.97931320000000 1.50740472000000  95.22452843000001 -1.86643555034505
1.27047465000000 1.70392938000000 105.73632082000000 -1.86752984005693
0.86859541000000 1.84140751000000  94.97153621000000 -1.86786691479358
0.90131329000000 1.67324028000000  90.89162259000000 -1.86729477305460
0.94803122000000 1.91047667000000 101.37434408999999 -1.86806990814398
1.28737342000000 1.51351749000000 100.40751499000000 -1.86655943856397
1.02413891000000 1.96276488000000  98.16915430000000 -1.86823293969576
0.94845133000000 1.63080268000000 136.65745595999999 -1.86685975888986
0.93541979000000 1.86765289000000 110.51743064999999 -1.86792063459347
1.19197304000000 1.68618516000000  79.70442842999999 -1.86731394467745
1.06241630000000 1.74421703000000  92.16870131000000 -1.86760450124871
1.29999882000000 1.67636451000000  69.83704711999999 -1.86696210538196
1.01493054000000 1.44959558000000 112.39406384999999 -1.86586038441624
1.02958526000000 1.73490583000000 110.52144478000000 -1.86750019663691
0.92593426000000 1.68462993000000 103.76583653000000 -1.86732677953455
1.32810683000000 1.72114595000000 109.63816758000000 -1.86763053450500
1.30769179000000 1.64778973000000 111.45832707000000 -1.86730031623210
0.92835363000000 1.95880389000000 115.86908733999999 -1.86818666866532
1.04724182000000 1.72810741000000 112.23596691000000 -1.86747230159131
0.75747066000000 1.71448532000000  87.06487806000000 -1.86734620124957
1.03519248000000 1.74233728000000  79.35487187000000 -1.86741615107098
1.05864691000000 1.68555895000000 133.20957096000001 -1.86721511225358
0.95120069000000 1.64011176000000  95.59594693000000 -1.86718258920155
0.90189680000000 1.60677415000000  88.68662220000000 -1.86695160066211
1.07156675000000 1.45656259000000  96.58371382999999 -1.86605708770298
0.92535569000000 1.67887269000000  99.93898819000000 -1.86732813734784
0.89545283000000 1.67271201000000  97.39401087000000 -1.86731252229458
0.94849397000000 1.89386507000000  93.07238454000000 -1.86801834128948
0.80689946000000 1.72111289000000 122.56274860000001 -1.86734645548688
0.89956691000000 1.79377331000000  97.28772649000000 -1.86773086239430
0.97837102000000 1.83506370000000 118.02520959000000 -1.86780212700967
1.14188729000000 1.61036218000000 109.56987303000000 -1.86700617797953
1.28210585000000 1.70220353000000  63.81499079000000 -1.86669286855715
1.04648286000000 1.76961239000000 110.16180596000000 -1.86763780094122
0.87862283000000 1.71845045000000 127.51745716000001 -1.86729780228939
1.33969078000000 1.69001283000000 115.13734137000000 -1.86750627209233
0.99140010000000 1.80797783000000  96.15497548000000 -1.86778949108316
1.09150627000000 1.70968791000000  86.50364623000000 -1.86746418464429
1.15207415000000 1.67092273000000 129.41957056000001 -1.86723536291254
1.08389670000000 1.80402478000000 103.75187565000000 -1.86779493111158
1.14112362000000 1.62927644000000  96.84759129000000 -1.86716698802377
0.69999490000000 1.45417174000000 102.54219600000000 -1.86599215635795
1.30271325000000 1.70449290000000  93.28363048999999 -1.86754908481191
1.21482782000000 1.68915021000000  89.03152815000000 -1.86744959517614
0.79268689000000 1.67810930000000 124.93330838999999 -1.86715825520798
0.91015491000000 1.64715501000000 107.70842368000000 -1.86713494269975
0.99795273000000 1.67153806000000  80.86755982000000 -1.86713116151839
1.01124501000000 1.76185123000000 108.02668911000001 -1.86760601658932
0.86315775000000 1.66249484000000 114.92466550000000 -1.86714713382082
0.96096368000000 1.55414159000000  70.82666533000000 -1.86596180749325
1.05400770000000 1.62962115000000 109.84119612000001 -1.86705939228204
0.84038665000000 2.03975430000000 100.62425718999999 -1.86839205704496
0.90972047000000 1.83434612000000 100.22536319000000 -1.86784788461216
1.00983814000000 1.82371393000000 104.02282142000000 -1.86782818752818
0.92568308000000 1.67618685000000 115.77783895000000 -1.86719935565623
1.07307083000000 1.66893732000000  73.05384757000000 -1.86685215168757
1.04358650000000 1.59916211000000 122.82465424999999 -1.86682041543384
0.80415922000000 1.61361838000000 117.15663655000000 -1.86691019859791
0.92233957000000 1.89617203000000  89.92571181000000 -1.86800701044069
0.89747288000000 1.59364721000000 106.29126180000000 -1.86688601563799
0.97560309000000 1.67410683000000 103.02305509000000 -1.86729243247157
1.13656446000000 1.54710417000000 105.04967222000001 -1.86666961539424
1.04705351000000 1.77593313000000 109.12002038999999 -1.86766514324790
1.12762044000000 1.68705892000000  64.32688793000000 -1.86651560061205
0.99823640000000 1.66103102000000  88.58726034999999 -1.86725474529351
0.76732554000000 1.71240625000000 109.20522473000000 -1.86741474509097
1.18980229000000 1.68791702000000  97.51630564000000 -1.86743729779971
0.99724338000000 1.84592174000000 110.94262611000001 -1.86787146220900
1.13564665000000 1.51802156000000  98.23817550000000 -1.86652720951474
1.06615723000000 1.71169718000000  95.09122171000000 -1.86749257552970
0.95927211000000 2.02355988000000 109.92762643000000 -1.86838133096364
0.93563295000000 1.78088553000000 105.89319454000000 -1.86766367773259
0.95310614000000 1.51445967000000 120.10642616000000 -1.86629397844592
1.20510428000000 1.69450102000000 114.50320383000000 -1.86742320248538
1.23260765000000 1.77819447000000  99.21096763000000 -1.86778233009215
0.95733237000000 1.62219204000000 106.99559888000000 -1.86702357580953
1.00205758000000 1.70248221000000  81.12162225000000 -1.86728078927240
1.03645879000000 1.66085358000000  95.11501754000000 -1.86728695777038
1.28091156000000 1.73084199000000 100.40721501000000 -1.86764259616564
0.84328851000000 1.64137065000000  90.04263834000000 -1.86712010828307
1.05668725000000 1.67671237000000  90.57292914999999 -1.86735408786478
0.86557499000000 1.79023416000000  89.32822487000000 -1.86768843327695
1.00104124000000 1.76191771000000  97.53579963000000 -1.86764590995165
0.93887063000000 2.21532063000000  90.42137221999999 -1.86871727790890
1.05987787000000 1.60888408000000  90.54012840000000 -1.86705464644035
0.86233506000000 1.71176498000000  90.83532571000001 -1.86743435446374
1.00134864000000 1.64567908000000  84.68884808000000 -1.86712185643603
0.90267636000000 1.60744010000000 107.84627030000000 -1.86694274503100
0.92038147000000 1.76006740000000 125.98635154999999 -1.86747428817944
1.03979965000000 1.73708325000000 141.56484821999999 -1.86740429513247
0.94926897000000 1.61163813000000 107.11630153999999 -1.86696940055936
0.96782856000000 1.87665668000000 106.44608269000000 -1.86796955658440
0.92595267000000 1.75155615000000 119.66158540000001 -1.86747628390413
0.96125298000000 1.62224943000000 132.62327922000000 -1.86684811422026
0.82991450000000 1.47697821000000 108.65480370000000 -1.86611794188286
1.01808249000000 1.58689435000000  93.73913477000001 -1.86693626628175
0.84202217000000 1.75143041000000 114.37094936000000 -1.86750726344610
0.99548740000000 1.90344786000000 103.32454117000000 -1.86806245847231
1.08357988000000 2.00322890000000  99.41289558000000 -1.86836120315650
1.22224975000000 1.78421393000000 104.27905013000000 -1.86779674074273
0.92749029000000 1.80059714000000 101.43409290000000 -1.86774512299212
1.14342709000000 1.73996564000000 112.16941839000000 -1.86757332765035
0.99288944000000 1.70528249000000  68.75882353999999 -1.86671951568974
0.97375476000000 1.51748673000000  85.10527352000000 -1.86635540491557
1.01149709000000 1.70250367000000 112.40072834000000 -1.86735358864780
0.96089279000000 1.59343043000000  87.32128861000000 -1.86688763263953
0.99711198000000 1.84301472000000  92.45328016000001 -1.86788824654650
1.04798835000000 2.04598625000000  97.83943385000001 -1.86844788796282
0.91963648000000 1.76561305000000  61.37591490000000 -1.86656564942916
0.75621858000000 1.77800767000000 112.51697167000000 -1.86763351113552
1.02740796000000 1.73119307000000  82.02877855000000 -1.86743743075851
0.95520143000000 2.04735694000000  85.71423793000000 -1.86836964616475
1.12059629000000 1.80123338000000  95.70804694000000 -1.86780867316145
0.88293634000000 1.78206704000000 102.69228398000000 -1.86767902648512
0.92043884000000 1.80116755000000 107.51564374000000 -1.86771982627113
0.99912757000000 1.65472462000000  84.44802107000000 -1.86715674964364
0.76859598000000 1.61253969000000  92.44522823000000 -1.86697963207655
0.94475444000000 1.45840879000000  90.50826275000000 -1.86599667287408
0.94687427000000 1.65361114000000 134.12646303000000 -1.86699221258823
0.95516933000000 1.60686342000000  88.74794523000000 -1.86698244416414
0.80738407000000 1.68811028000000  96.88285127000000 -1.86736921418299
1.01251130000000 1.53981315000000  95.15002118000000 -1.86665958934043
1.03667496000000 1.84048985000000 109.91673532000000 -1.86787475115693
0.93654084000000 1.74557316000000  64.08643118000001 -1.86661884364446
1.01521330000000 1.62083154000000  94.29863290999999 -1.86710600600611
0.89179795000000 1.63222109000000  96.49779928000000 -1.86713983065340
0.93938494000000 1.60445584000000  91.77122579000000 -1.86699937325761
0.79648662000000 1.70872025000000  77.09005074000000 -1.86699988262308
0.98250409000000 1.83618445000000  91.76755611999999 -1.86786285837013
1.16042487000000 1.69014057000000 132.78879050000000 -1.86732732212852
0.99124897000000 1.81986026000000 120.07940365000000 -1.86774803507797
1.04632750000000 1.95825804000000 104.34373686000001 -1.86823529130493
0.90833747000000 1.70392837000000  72.76805069000000 -1.86685137364043
1.24096252000000 1.89813062000000 101.53644322000000 -1.86815155788895
0.94718104000000 1.48834750000000 119.16809272000000 -1.86611157237144
1.11782751000000 1.57392506000000  99.19177505000000 -1.86686134251477
1.01243197000000 1.60514683000000 119.00960840000000 -1.86685942343195
0.96844723000000 1.91856789000000 105.98719045999999 -1.86809341514606
0.97563048000000 1.55052712000000 105.10743185000000 -1.86664732895292
0.87193548000000 1.70067140000000 115.89718127000000 -1.86729995060557
1.12692428000000 1.48220486000000  99.88655221000000 -1.86625485423883
0.86426918000000 1.71098924000000  98.53255668000000 -1.86745496225956
1.10745522000000 1.67329162000000 145.38325104000000 -1.86715939428348
1.34258474000000 1.69786060000000 105.24302365000000 -1.86755200124242
0.97206722000000 1.63360213000000  79.97054244000000 -1.86688293256293
1.03768185000000 1.58354159000000 112.05288654000000 -1.86679587486890
0.83316888000000 1.70105598000000  98.91040378000000 -1.86741790115718
0.76778044000000 1.75945315000000  91.63534982000000 -1.86759443912365
0.94911604000000 1.68979777000000  95.35325055000000 -1.86738735261156
0.92837346000000 1.69343868000000 118.56477504000000 -1.86725356003160
1.09724789000000 1.70707638000000 110.43418864000000 -1.86742283969897
0.96086210000000 1.73577325000000 115.13084019000000 -1.86745198020753
0.89475255000000 1.54305376000000 112.67346947000000 -1.86653257727835
0.86361688000000 1.54115110000000 100.64283134999999 -1.86663462137926
0.87327310000000 1.78068999000000 101.76230305000000 -1.86767843222128
1.40022706000000 1.61305399000000 102.08002080000000 -1.86721434835897
1.19329623000000 1.66119947000000  95.40813537000000 -1.86733226559329
0.88981481000000 1.97651931000000 104.24837303000000 -1.86823671246248
0.96412112000000 1.54136775000000  99.91471876999999 -1.86663824556877
0.99645460000000 1.53497974000000 132.38078046000001 -1.86634854354531
0.98519046000000 1.82639116000000 105.96655248000000 -1.86782219479267
1.01098130000000 1.48848636000000 109.97698076000000 -1.86618539419021
1.36083098000000 1.66800529000000 115.66707431000000 -1.86742624209853
1.03438997000000 1.49445834000000  98.55718803000001 -1.86633487587164
0.97656742000000 1.93358194000000 109.04372386999999 -1.86813591703140
0.97586149000000 1.61752531000000  83.69775863000000 -1.86693511778742
1.05172868000000 1.65922769000000 136.17950279999999 -1.86707623785844
0.90888651000000 1.71421445000000 115.22074410000000 -1.86735878784157
1.01702538000000 1.62221680000000 109.99910985000000 -1.86700917935082
1.00834451000000 1.74334698000000  72.62296670000001 -1.86713310134564
0.95014138000000 1.87754367000000  84.27604180000000 -1.86791843159563
0.95247282000000 2.09109028000000  88.01636030000000 -1.86847976930414
0.85745733000000 1.71612596000000 111.10904517000000 -1.86739757500379
1.01030808000000 1.61027235000000 119.01615701999999 -1.86688530411311
1.01991737000000 1.74281773000000 137.30389122000000 -1.86742272046024
1.03794885000000 1.78647572000000  89.35569101000000 -1.86772162690283
1.19063719000000 1.69928395000000  97.28785680000000 -1.86748290505523
1.08174719000000 1.76622608000000 103.61303081000000 -1.86766764214019
0.87840264000000 1.96660960000000  99.19154183000001 -1.86820853463530
0.81425840000000 1.62804372000000 120.73165695000000 -1.86695192879358
0.95053671000000 1.75854926000000 107.95439399999999 -1.86757825965378
1.09418443000000 1.80406713000000  96.06364935000001 -1.86780832030649
1.10421226000000 1.90241337000000 105.95747511000000 -1.86810389144273
0.95368370000000 1.54998671000000 123.94170559000000 -1.86649882936467
1.04088731000000 1.66636561000000  66.98985933000000 -1.86647157410118
1.00752244000000 1.86321613000000 104.12663188000001 -1.86794797442360
1.01936210000000 1.69502431000000 129.70787515999999 -1.86723945958488
1.25223351000000 1.43643260000000 104.92088041000000 -1.86592565537489
1.03778593000000 1.74931574000000 125.08568319000000 -1.86749332931777
1.00557399000000 1.66146278000000  81.77466015000000 -1.86711962720869
1.34486789000000 1.69437019000000 116.19856195000000 -1.86752744400258
1.03893558000000 1.93610092000000 108.86141675000000 -1.86817019820978
0.93054255000000 1.57616086000000  86.26796383000000 -1.86674054040611
0.96268324000000 1.97371236000000 103.23222697000000 -1.86824565453378
0.93882998000000 1.57881846000000 113.21769508000000 -1.86674046620158
1.01382579000000 1.81306362000000  91.13764784000000 -1.86780221568904
0.86903730000000 1.61939737000000  80.63597718000000 -1.86672930710927
0.96147847000000 1.72660859000000 118.20721970000000 -1.86739766974051
0.95484987000000 1.67412137000000  90.50075266000000 -1.86731143915654
0.98337607000000 1.75894357000000 122.93745507000000 -1.86750756835033
0.92217796000000 1.80961703000000  79.41806778000000 -1.86760627427361
1.09834612000000 1.65595063000000 133.50321708999999 -1.86710719755274
1.01044796000000 1.85723485000000 116.45413506000000 -1.86789841102927
0.94957895000000 1.93084725000000  87.98538791999999 -1.86809411373099
1.14712175000000 1.70207765000000  65.92043689000000 -1.86669424703359
1.05582339000000 1.64797494000000  92.79737466000000 -1.86723915851871
0.87081774000000 1.87946010000000  95.41278135000000 -1.86797313892259
1.26627158000000 1.70633400000000  96.50464825000000 -1.86754331631596
1.26257017000000 1.68160836000000  78.18811857999999 -1.86730473556054
1.08381664000000 1.67672935000000 107.74742362000001 -1.86730290795742
1.25598262000000 2.00100985000000 102.61896977000001 -1.86843483524058
0.82783487000000 1.69117426000000  84.07806979999999 -1.86720036164127
1.12973918000000 1.64778187000000  88.25413369000000 -1.86724825994088
1.07643200000000 1.72510819000000  77.52015270000000 -1.86731905593706
0.97807789000000 1.43681750000000  95.90523899000000 -1.86586313229088
0.92916351000000 1.57236363000000  79.53255661999999 -1.86645628140218
0.80662079000000 1.76684955000000  92.82926216000000 -1.86763266098046
0.91039250000000 1.75463941000000 113.98825351000001 -1.86752029730690
1.08365048000000 1.71686321000000  66.25661242000000 -1.86672419237698
1.07061220000000 1.78625302000000 114.90974810000000 -1.86769110695388
0.81065883000000 1.67570574000000  95.41711152000001 -1.86731608252694
1.45057782000000 1.71649367000000 114.97255824000000 -1.86769468008640
0.99319787000000 1.44004176000000  79.84845906000000 -1.86553638454802
0.83673910000000 1.70009656000000 134.04062759000001 -1.86718634674310
1.30080015000000 1.69553024000000 138.85315639999999 -1.86748523612789
0.87033460000000 1.69986649000000  68.65344946000000 -1.86657781272061
0.98215980000000 1.57195544000000 110.72681258000000 -1.86672559267731
1.10869969000000 1.64862353000000 118.45506412000000 -1.86713031363706
1.21297121000000 1.67528216000000  61.27047065000000 -1.86638138171895
1.01019936000000 1.54578355000000 101.97690423000000 -1.86665010441641
0.97867809000000 1.67045815000000  79.55162561000000 -1.86706137676492
1.16156923000000 1.67876139000000 106.90031690000001 -1.86735559102397
0.97063427000000 1.94714333000000 122.18764717000001 -1.86816477918057
1.07450681000000 1.64603507000000  77.75181200000000 -1.86696075180600
1.21932826000000 1.85277968000000 100.93436026000001 -1.86801004608776
1.28132104000000 1.59572908000000 102.52364996999999 -1.86704562000682
0.90323704000000 1.95461660000000 102.58318335000000 -1.86818056916320
1.04336462000000 1.81252784000000 116.21150206999999 -1.86776423493018
1.04107511000000 1.81499986000000 107.04040238000000 -1.86780284333986
1.24174801000000 1.65306289000000 103.64738646000001 -1.86729982212785
1.13260713000000 1.67325680000000  77.03857762000000 -1.86712265787082
0.96230201000000 1.87770370000000 113.62638353000000 -1.86795096646676
1.20307366000000 1.57422863000000 105.44095602000000 -1.86686638422759
0.90095136000000 1.48049310000000 108.64537793000000 -1.86613043431862
1.00268753000000 1.78169462000000  83.41731079000000 -1.86763111815947
0.89036263000000 1.54733951000000  89.33038291000000 -1.86660793184353
0.97349982000000 1.80131471000000 103.74652550000000 -1.86774753196971
1.05874232000000 1.74529434000000 106.32160303000001 -1.86757275379955
1.01756930000000 1.75932600000000  70.28530300000000 -1.86709898160984
1.12338486000000 2.05740067000000 104.21946461000000 -1.86852254909172
1.11261402000000 1.71565910000000 140.04137921000000 -1.86738386740785
1.00049357000000 1.59904986000000  91.25471138000000 -1.86698850646212
1.02907079000000 1.61157544000000 118.24634938000000 -1.86690401942678
1.13731638000000 1.52795576000000 100.21922116000000 -1.86658024205542
0.94989347000000 1.72625264000000 102.74867184999999 -1.86749370362713
1.13933314000000 1.69153660000000 124.66782327000000 -1.86732828371464
0.85823460000000 1.60978510000000 119.86867500000000 -1.86685904477429
1.24011757000000 1.61601604000000  99.82191994999999 -1.86713326781933
0.97213815000000 1.75355079000000  88.38798026000001 -1.86758907955175
1.11805333000000 2.05528541000000 104.64591686000000 -1.86851655031126
1.35090587000000 1.69955295000000 103.80581094000000 -1.86756431339029
1.04323152000000 1.79478265000000 118.17507831000000 -1.86769404380732
1.01692728000000 1.85012779000000 103.73183926999999 -1.86791277780105
0.95012640000000 1.54857746000000  99.24558227000000 -1.86668767048741
1.04541467000000 1.84505911000000 109.28675926000000 -1.86789533969204
1.39809357000000 1.61900270000000 106.63766184000001 -1.86723908121360
0.87573530000000 1.80346908000000  90.12244461000000 -1.86773750303701
1.01309775000000 1.62637589000000  58.85103771000000 -1.86596388817554
1.05038785000000 1.46325125000000 104.19712603000001 -1.86604561344961
1.23627588000000 1.67959443000000 100.33975541000000 -1.86741957687343
0.97684044000000 1.81767522000000 110.15346266000000 -1.86777469851165
0.99151748000000 1.72228933000000  72.22436691999999 -1.86699450139736
0.86712302000000 1.70001289000000  71.80160026999999 -1.86674439220394
1.01796809000000 1.51299602000000  91.46638657000000 -1.86647615730283
0.92803476000000 1.68529528000000  63.83797115000000 -1.86630587525724
1.46185906000000 1.69492173000000  86.61087261999999 -1.86755241853280
0.99077196000000 1.70652497000000 131.14321121000000 -1.86726737255196
0.95125988000000 1.51991065000000  94.64807209000000 -1.86651615627511
0.92176803000000 1.62902604000000 129.37228902999999 -1.86689106962763
1.16401024000000 1.50700131000000 102.38604085000000 -1.86643449838220
1.12182608000000 1.73604544000000 107.53509724000000 -1.86756286741706
0.93051407000000 1.74410684000000 114.37005215000001 -1.86748170457372
1.02887979000000 1.65714723000000 111.68258896000000 -1.86716813794203
0.97205709000000 1.93319764000000  84.77203840999999 -1.86808276603574
0.93438637000000 1.78625522000000 105.04110473999999 -1.86768546924986
1.03036949000000 1.63930403000000 121.49955649000000 -1.86702494056760
0.85112281000000 2.01459477000000 102.35370666000000 -1.86833202143123
1.19475274000000 1.65654902000000  87.02457303000000 -1.86730314235729
1.07788934000000 1.57564190000000  98.49180848000000 -1.86686549211731
1.03578315000000 1.82370230000000 104.86651327000000 -1.86783525394742
0.96197900000000 1.66817604000000  59.31920874000000 -1.86609279970457
0.96535550000000 1.67792788000000 127.23201229999999 -1.86714653085778
1.00912052000000 1.56988827000000 123.23473610000001 -1.86663990012687
1.02352220000000 1.67107748000000 117.30544285000001 -1.86719316065694
1.09702068000000 1.79171406000000  99.26437778000000 -1.86776878561352
0.94774520000000 1.51540851000000 103.51193752000000 -1.86643463137284
1.00156952000000 1.68641058000000 115.10042366000000 -1.86726518353498
0.90156023000000 1.56225429000000 106.72330482000000 -1.86670544877256
1.00621403000000 1.89924180000000 115.16883475000000 -1.86803611568814
1.25568040000000 1.69884529000000 102.22505468999999 -1.86750576059933
0.87520534000000 1.72678821000000  72.15730718000000 -1.86691417320310
0.96590642000000 1.61031814000000 122.68036981000000 -1.86684932313369
1.06555695000000 1.62375960000000  90.02083775000000 -1.86712592918457
0.94172779000000 1.57310351000000  69.89561401000000 -1.86601311964819
0.97036439000000 1.70836115000000  68.73389515000000 -1.86671258170975
1.26598319000000 1.69667369000000 127.92533276000000 -1.86746080476598
1.03726535000000 1.68483918000000 122.02280331999999 -1.86723583961839
1.03322605000000 1.66239321000000 115.65736142000000 -1.86716817157310
0.85640744000000 2.11845417000000 106.96146576000000 -1.86858628514528
1.04058989000000 1.70697421000000  88.78662731999999 -1.86745396723722
1.21623438000000 1.68240570000000 106.54687316000000 -1.86740503012425
1.03077745000000 1.60502861000000 113.22894313000000 -1.86690219590321
0.86503093000000 1.74701941000000  85.39570586000001 -1.86748525036091
1.06662633000000 1.76572651000000 119.17844071000000 -1.86759693155216
1.03669236000000 1.69022642000000 149.27196942000000 -1.86715236958344
1.01014605000000 1.70743516000000 132.57183988000000 -1.86727872715528
0.88827056000000 1.83942852000000 105.00469860000000 -1.86784728614180
1.07146349000000 1.53886718000000 110.04337978000000 -1.86655472847133
1.09919968000000 1.65812190000000  96.44679351000001 -1.86728593110661
0.95336085000000 1.82953145000000 126.66919387000000 -1.86774094776933
0.88493135000000 1.72876848000000 102.44946172000000 -1.86750151937713
0.92882897000000 1.73696891000000  95.88660593000000 -1.86755359150391
0.82658256000000 1.69704544000000 113.37564374000000 -1.86731026601080
0.95835598000000 1.55820232000000  76.83213542000000 -1.86626745378783
0.96464303000000 1.46822874000000 139.05401092000000 -1.86565687632617
0.96573790000000 1.50812517000000  79.84117320000000 -1.86606817464622
1.42995165000000 1.84086937000000 102.24527021999999 -1.86807560676993
1.31741462000000 1.69365695000000 102.34344067000001 -1.86752080692361
0.88026357000000 1.54696351000000 106.12932309000000 -1.86662214566354
1.02823422000000 1.80290475000000 117.78120708000000 -1.86771596421943
0.92807638000000 1.70276062000000  63.74098119000000 -1.86638450415114
0.91731462000000 1.72290660000000 104.54637545999999 -1.86746804997767
0.92421046000000 1.72294737000000 114.27932887000000 -1.86740093155026
0.88774620000000 1.76041994000000  98.22858478000001 -1.86762456719657
0.95339800000000 2.08886206000000  83.16092894000001 -1.86844354378195
1.00226672000000 1.63628310000000  69.68166711000001 -1.86641487212000
1.12722288000000 1.69454008000000 142.97420858999999 -1.86729415165951
0.93771826000000 1.58390144000000 106.03254978000000 -1.86683276099370
1.28817198000000 1.68253108000000 120.32322755000000 -1.86742419079246
0.98025695000000 1.57535900000000 118.08420464000000 -1.86669259266171
1.16245483000000 1.59630813000000 107.79079002000000 -1.86695311085998
0.76642123000000 1.49203948000000 103.53046655999999 -1.86628942047525
1.17924049000000 1.73136151000000 113.52205041000001 -1.86755922412135
0.91224048000000 1.79204731000000  91.24510739000000 -1.86771599614269
1.03561808000000 1.70957665000000 105.42179410999999 -1.86743354095017
1.00130934000000 1.57378198000000 103.53839963000000 -1.86680158868933
0.82731462000000 1.71960515000000 118.53278467000000 -1.86736214145935
0.99264340000000 1.81291184000000  60.04557409000000 -1.86676191661650
1.03967640000000 1.67371026000000 110.08328607000000 -1.86725700792010
1.17313375000000 1.62045884000000 102.65919221000000 -1.86711032828680
0.85209995000000 1.73379500000000  77.78014544000000 -1.86719366918112
0.77491518000000 1.66679742000000 115.53833591999999 -1.86718065431501
1.41981197000000 1.64503910000000 104.66043325000000 -1.86737845337984
0.99753629000000 1.73167685000000  89.02405675000000 -1.86752872889986
0.95875969000000 1.55645581000000  96.21179607000001 -1.86675050826511
0.89778183000000 1.76132857000000  86.29112400000000 -1.86756481906082
1.10686106000000 1.83314836000000 101.48451061000000 -1.86790041489405
0.89458101000000 1.53696658000000 116.02467557000000 -1.86646653232833
0.89767477000000 1.72557279000000  75.44982983000000 -1.86708659860733
0.99115805000000 1.54826403000000 121.82178541000000 -1.86651298540176
0.95311224000000 1.85531480000000 115.41127328000000 -1.86786924585556
0.93684159000000 1.58147996000000 137.29981975000001 -1.86655627039590
1.05899210000000 1.68376220000000 111.50085232000001 -1.86729996186398
0.99812362000000 1.66089609000000  88.92764692999999 -1.86725773624516
0.98835183000000 1.80976437000000 100.30641301999999 -1.86778852301393
1.05453552000000 1.75243314000000  86.51885497000001 -1.86759777545490
0.96579691000000 1.59721361000000 108.31793437000000 -1.86688451984480
1.05097642000000 1.60466653000000 107.98635417000000 -1.86694440614622
0.98462819000000 1.84080533000000 123.17376623000000 -1.86780901894838
1.15432535000000 1.72281017000000 104.79951274000000 -1.86753895371658
0.98301806000000 1.68005800000000 139.06782784000001 -1.86711598086049
0.99999862000000 1.66384072000000 108.17701155000000 -1.86721455911538
1.11891519000000 1.77143103000000  96.23057841000001 -1.86771350217543
0.95132899000000 1.78438834000000  86.83994178000000 -1.86766675571050
1.02804741000000 1.50633645000000 103.05409966000001 -1.86637982333275
1.04253991000000 1.92721125000000  97.39965537000000 -1.86814392494159
1.00707471000000 1.90973877000000  94.32689868000000 -1.86807967471202
1.01102704000000 1.73251539000000 128.00465073999999 -1.86739854834480
0.96325634000000 1.79520044000000  86.87346531999999 -1.86770511348334
0.90975965000000 1.66715687000000 104.24029139000000 -1.86725131186643
1.25890908000000 1.62217183000000 103.23467334000000 -1.86716507490291
0.92221831000000 1.65914049000000 152.59125875999999 -1.86685504769935
1.35632644000000 1.73671527000000  95.75180493000001 -1.86769477009989
0.98214442000000 1.69171103000000  74.33398129000000 -1.86693798988483
0.90735935000000 1.64527547000000 112.50814649000000 -1.86708576136527
0.64321608000000 1.68888476000000 103.00000000000000 -1.86738977104210
0.65075377000000 1.68888476000000 103.00000000000000 -1.86738628207297
0.65829146000000 1.68888476000000 103.00000000000000 -1.86738318403570
0.68090452000000 1.68888476000000 103.00000000000000 -1.86737583932995
0.68844221000000 1.68888476000000 103.00000000000000 -1.86737391598353
0.69597990000000 1.68888476000000 103.00000000000000 -1.86737219749909
0.70351759000000 1.68888476000000 103.00000000000000 -1.86737065351087
0.71105528000000 1.68888476000000 103.00000000000000 -1.86736925553066
0.71859296000000 1.68888476000000 103.00000000000000 -1.86736797803906
0.72613065000000 1.68888476000000 103.00000000000000 -1.86736679812839
0.73366834000000 1.68888476000000 103.00000000000000 -1.86736569526636
0.74120603000000 1.68888476000000 103.00000000000000 -1.86736465316346
0.74874372000000 1.68888476000000 103.00000000000000 -1.86736365654428
0.75628141000000 1.68888476000000 103.00000000000000 -1.86736269422909
0.76381910000000 1.68888476000000 103.00000000000000 -1.86736175610474
0.77135678000000 1.68888476000000 103.00000000000000 -1.86736083533651
0.77889447000000 1.68888476000000 103.00000000000000 -1.86735992700687
0.78643216000000 1.68888476000000 103.00000000000000 -1.86735902895077
0.79396985000000 1.68888476000000 103.00000000000000 -1.86735813981454
0.80150754000000 1.68888476000000 103.00000000000000 -1.86735726112170
0.80904523000000 1.68888476000000 103.00000000000000 -1.86735639520180
0.81658291000000 1.68888476000000 103.00000000000000 -1.86735554613801
0.82412060000000 1.68888476000000 103.00000000000000 -1.86735471852558
0.83165829000000 1.68888476000000 103.00000000000000 -1.86735391789045
0.83919598000000 1.68888476000000 103.00000000000000 -1.86735315145370
0.84673367000000 1.68888476000000 103.00000000000000 -1.86735242578879
0.86180905000000 1.68888476000000 103.00000000000000 -1.86735112679844
0.86934673000000 1.68888476000000 103.00000000000000 -1.86735056931070
0.87688442000000 1.68888476000000 103.00000000000000 -1.86735008179085
0.88442211000000 1.68888476000000 103.00000000000000 -1.86734967233235
0.89195980000000 1.68888476000000 103.00000000000000 -1.86734934903984
0.89949749000000 1.68888476000000 103.00000000000000 -1.86734911700898
0.90703518000000 1.68888476000000 103.00000000000000 -1.86734898191423
0.91457286000000 1.68888476000000 103.00000000000000 -1.86734895143650
0.92211055000000 1.68888476000000 103.00000000000000 -1.86734902831392
0.92964824000000 1.68888476000000 103.00000000000000 -1.86734921884158
0.93718593000000 1.68888476000000 103.00000000000000 -1.86734952591405
0.94472362000000 1.68888476000000 103.00000000000000 -1.86734995371819
0.95226131000000 1.68888476000000 103.00000000000000 -1.86735050352286
0.95979899000000 1.68888476000000 103.00000000000000 -1.86735117919955
0.96733668000000 1.68888476000000 103.00000000000000 -1.86735198145163
0.97487437000000 1.68888476000000 103.00000000000000 -1.86735291084324
0.98241206000000 1.68888476000000 103.00000000000000 -1.86735396890947
0.98994975000000 1.68888476000000 103.00000000000000 -1.86735515622024
1.02763819000000 1.68888476000000 103.00000000000000 -1.86736299730921
1.03517588000000 1.68888476000000 103.00000000000000 -1.86736493862054
1.04271357000000 1.68888476000000 103.00000000000000 -1.86736700016820
1.05025126000000 1.68888476000000 103.00000000000000 -1.86736918000167
1.05778894000000 1.68888476000000 103.00000000000000 -1.86737147511121
1.06532663000000 1.68888476000000 103.00000000000000 -1.86737388432050
1.07286432000000 1.68888476000000 103.00000000000000 -1.86737640401634
1.08793970000000 1.68888476000000 103.00000000000000 -1.86738176733513
1.09547739000000 1.68888476000000 103.00000000000000 -1.86738460452352
1.10301508000000 1.68888476000000 103.00000000000000 -1.86738754334817
1.11055276000000 1.68888476000000 103.00000000000000 -1.86739057929174
1.11809045000000 1.68888476000000 103.00000000000000 -1.86739371073509
1.12562814000000 1.68888476000000 103.00000000000000 -1.86739693491211
1.13316583000000 1.68888476000000 103.00000000000000 -1.86740024807716
1.14070352000000 1.68888476000000 103.00000000000000 -1.86740364879472
1.14824121000000 1.68888476000000 103.00000000000000 -1.86740713399399
1.16331658000000 1.68888476000000 103.00000000000000 -1.86741434433975
1.17085427000000 1.68888476000000 103.00000000000000 -1.86741806571888
1.17839196000000 1.68888476000000 103.00000000000000 -1.86742185966261
1.19346734000000 1.68888476000000 103.00000000000000 -1.86742965433405
1.20100503000000 1.68888476000000 103.00000000000000 -1.86743364954157
1.20854271000000 1.68888476000000 103.00000000000000 -1.86743770674411
1.21608040000000 1.68888476000000 103.00000000000000 -1.86744182174516
1.22361809000000 1.68888476000000 103.00000000000000 -1.86744599202621
1.23115578000000 1.68888476000000 103.00000000000000 -1.86745021566128
1.23869347000000 1.68888476000000 103.00000000000000 -1.86745448678425
1.24623116000000 1.68888476000000 103.00000000000000 -1.86745880463150
1.25376884000000 1.68888476000000 103.00000000000000 -1.86746316579024
1.26130653000000 1.68888476000000 103.00000000000000 -1.86746756652553
1.28391960000000 1.68888476000000 103.00000000000000 -1.86748097482507
1.29145729000000 1.68888476000000 103.00000000000000 -1.86748550287189
1.29899497000000 1.68888476000000 103.00000000000000 -1.86749005311447
1.30653266000000 1.68888476000000 103.00000000000000 -1.86749462452917
1.31407035000000 1.68888476000000 103.00000000000000 -1.86749921331341
1.32160804000000 1.68888476000000 103.00000000000000 -1.86750381525781
1.32914573000000 1.68888476000000 103.00000000000000 -1.86750842895844
1.33668342000000 1.68888476000000 103.00000000000000 -1.86751305025530
1.34422111000000 1.68888476000000 103.00000000000000 -1.86751767662008
1.35929648000000 1.68888476000000 103.00000000000000 -1.86752692856317
1.37437186000000 1.68888476000000 103.00000000000000 -1.86753616512590
1.38190955000000 1.68888476000000 103.00000000000000 -1.86754076874843
1.38944724000000 1.68888476000000 103.00000000000000 -1.86754536053695
1.39698492000000 1.68888476000000 103.00000000000000 -1.86754993689715
1.40452261000000 1.68888476000000 103.00000000000000 -1.86755449511691
1.41206030000000 1.68888476000000 103.00000000000000 -1.86755903285598
1.41959799000000 1.68888476000000 103.00000000000000 -1.86756354812826
1.42713568000000 1.68888476000000 103.00000000000000 -1.86756803854598
1.43467337000000 1.68888476000000 103.00000000000000 -1.86757250108781
1.44221106000000 1.68888476000000 103.00000000000000 -1.86757693513482
1.44974874000000 1.68888476000000 103.00000000000000 -1.86758133766841
1.45728643000000 1.68888476000000 103.00000000000000 -1.86758570638540
1.46482412000000 1.68888476000000 103.00000000000000 -1.86759004096598
1.47236181000000 1.68888476000000 103.00000000000000 -1.86759434019984
1.47989950000000 1.68888476000000 103.00000000000000 -1.86759859929828
1.48743719000000 1.68888476000000 103.00000000000000 -1.86760282079149
1.49497487000000 1.68888476000000 103.00000000000000 -1.86760699969398
1.50251256000000 1.68888476000000 103.00000000000000 -1.86761113614125
1.51005025000000 1.68888476000000 103.00000000000000 -1.86761523126188
1.51758794000000 1.68888476000000 103.00000000000000 -1.86761928080500
1.52512563000000 1.68888476000000 103.00000000000000 -1.86762328406542
1.53266332000000 1.68888476000000 103.00000000000000 -1.86762724247274
1.54020101000000 1.68888476000000 103.00000000000000 -1.86763115467511
1.54773869000000 1.68888476000000 103.00000000000000 -1.86763501793553
1.55527638000000 1.68888476000000 103.00000000000000 -1.86763883270726
1.56281407000000 1.68888476000000 103.00000000000000 -1.86764259962865
1.57035176000000 1.68888476000000 103.00000000000000 -1.86764631859432
1.57788945000000 1.68888476000000 103.00000000000000 -1.86764998594788
1.58542714000000 1.68888476000000 103.00000000000000 -1.86765360599213
1.59296482000000 1.68888476000000 103.00000000000000 -1.86765717409367
1.60050251000000 1.68888476000000 103.00000000000000 -1.86766069200041
1.61557789000000 1.68888476000000 103.00000000000000 -1.86766758238991
1.62311558000000 1.68888476000000 103.00000000000000 -1.86767095134337
1.63065327000000 1.68888476000000 103.00000000000000 -1.86767427183213
1.63819095000000 1.68888476000000 103.00000000000000 -1.86767754507400
1.64572864000000 1.68888476000000 103.00000000000000 -1.86768076806720
1.65326633000000 1.68888476000000 103.00000000000000 -1.86768394155501
1.66080402000000 1.68888476000000 103.00000000000000 -1.86768706637588
1.66834171000000 1.68888476000000 103.00000000000000 -1.86769014600918
1.67587940000000 1.68888476000000 103.00000000000000 -1.86769317541746
1.68341709000000 1.68888476000000 103.00000000000000 -1.86769615993319
1.69095477000000 1.68888476000000 103.00000000000000 -1.86769910018984
1.69849246000000 1.68888476000000 103.00000000000000 -1.86770199230500
1.70603015000000 1.68888476000000 103.00000000000000 -1.86770484049657
1.71356784000000 1.68888476000000 103.00000000000000 -1.86770764413382
1.72110553000000 1.68888476000000 103.00000000000000 -1.86771040113888
1.72864322000000 1.68888476000000 103.00000000000000 -1.86771312016742
1.73618090000000 1.68888476000000 103.00000000000000 -1.86771579418223
1.74371859000000 1.68888476000000 103.00000000000000 -1.86771842445842
1.75125628000000 1.68888476000000 103.00000000000000 -1.86772101867973
1.76633166000000 1.68888476000000 103.00000000000000 -1.86772608201215
1.77386935000000 1.68888476000000 103.00000000000000 -1.86772855272568
1.78140704000000 1.68888476000000 103.00000000000000 -1.86773098765798
1.78894472000000 1.68888476000000 103.00000000000000 -1.86773338734599
1.79648241000000 1.68888476000000 103.00000000000000 -1.86773574840970
1.81155779000000 1.68888476000000 103.00000000000000 -1.86774036209840
1.81909548000000 1.68888476000000 103.00000000000000 -1.86774261633684
1.82663317000000 1.68888476000000 103.00000000000000 -1.86774483660292
1.84170854000000 1.68888476000000 103.00000000000000 -1.86774917728576
1.84924623000000 1.68888476000000 103.00000000000000 -1.86775129383943
1.85678392000000 1.68888476000000 103.00000000000000 -1.86775338772213
1.86432161000000 1.68888476000000 103.00000000000000 -1.86775544538955
1.87185930000000 1.68888476000000 103.00000000000000 -1.86775747318836
1.87939698000000 1.68888476000000 103.00000000000000 -1.86775946567570
1.88693467000000 1.68888476000000 103.00000000000000 -1.86776143809266
1.90201005000000 1.68888476000000 103.00000000000000 -1.86776528557812
1.91708543000000 1.68888476000000 103.00000000000000 -1.86776902066845
1.92462312000000 1.68888476000000 103.00000000000000 -1.86777084591415
1.93216080000000 1.68888476000000 103.00000000000000 -1.86777264480793
1.93969849000000 1.68888476000000 103.00000000000000 -1.86777440959816
1.94723618000000 1.68888476000000 103.00000000000000 -1.86777616081156
1.95477387000000 1.68888476000000 103.00000000000000 -1.86777787971471
1.96231156000000 1.68888476000000 103.00000000000000 -1.86777957252673
1.96984925000000 1.68888476000000 103.00000000000000 -1.86778124027649
1.97738693000000 1.68888476000000 103.00000000000000 -1.86778288086430
1.98492462000000 1.68888476000000 103.00000000000000 -1.86778449825238
0.96446195000000 1.25628141000000 103.00000000000000 -1.86370618554474
0.96446195000000 1.26256281000000 103.00000000000000 -1.86379203931688
0.96446195000000 1.26884422000000 103.00000000000000 -1.86387767239569
0.96446195000000 1.28140704000000 103.00000000000000 -1.86404776422569
0.96446195000000 1.28768844000000 103.00000000000000 -1.86413199097558
0.96446195000000 1.29396985000000 103.00000000000000 -1.86421553587434
0.96446195000000 1.30025126000000 103.00000000000000 -1.86429830745772
0.96446195000000 1.31909548000000 103.00000000000000 -1.86454120275425
0.96446195000000 1.32537688000000 103.00000000000000 -1.86462014453070
0.96446195000000 1.33793970000000 103.00000000000000 -1.86477468680607
0.96446195000000 1.35050251000000 103.00000000000000 -1.86492452321056
0.96446195000000 1.36306533000000 103.00000000000000 -1.86506944055714
0.96446195000000 1.36934673000000 103.00000000000000 -1.86514001139801
0.96446195000000 1.37562814000000 103.00000000000000 -1.86520931028610
0.96446195000000 1.38190955000000 103.00000000000000 -1.86527733232947
0.96446195000000 1.38819095000000 103.00000000000000 -1.86534407652618
0.96446195000000 1.39447236000000 103.00000000000000 -1.86540954427244
0.96446195000000 1.40075377000000 103.00000000000000 -1.86547374116049
0.96446195000000 1.40703518000000 103.00000000000000 -1.86553667459532
0.96446195000000 1.41331658000000 103.00000000000000 -1.86559835515891
0.96446195000000 1.42587940000000 103.00000000000000 -1.86571800475815
0.96446195000000 1.43216080000000 103.00000000000000 -1.86577600398198
0.96446195000000 1.43844221000000 103.00000000000000 -1.86583280804393
0.96446195000000 1.44472362000000 103.00000000000000 -1.86588843410743
0.96446195000000 1.45728643000000 103.00000000000000 -1.86599622874564
0.96446195000000 1.46356784000000 103.00000000000000 -1.86604843718544
0.96446195000000 1.46984925000000 103.00000000000000 -1.86609954618302
0.96446195000000 1.47613065000000 103.00000000000000 -1.86614957732127
0.96446195000000 1.48241206000000 103.00000000000000 -1.86619855086224
0.96446195000000 1.48869347000000 103.00000000000000 -1.86624648909503
0.96446195000000 1.49497487000000 103.00000000000000 -1.86629341286778
0.96446195000000 1.50125628000000 103.00000000000000 -1.86633934267468
0.96446195000000 1.50753769000000 103.00000000000000 -1.86638430156108
0.96446195000000 1.51381910000000 103.00000000000000 -1.86642830908920
0.96446195000000 1.52010050000000 103.00000000000000 -1.86647138696071
0.96446195000000 1.52638191000000 103.00000000000000 -1.86651355587037
0.96446195000000 1.53266332000000 103.00000000000000 -1.86655483715174
0.96446195000000 1.53894472000000 103.00000000000000 -1.86659525074447
0.96446195000000 1.54522613000000 103.00000000000000 -1.86663481682456
0.96446195000000 1.55150754000000 103.00000000000000 -1.86667355621478
0.96446195000000 1.55778894000000 103.00000000000000 -1.86671148847779
0.96446195000000 1.56407035000000 103.00000000000000 -1.86674863300982
0.96446195000000 1.57035176000000 103.00000000000000 -1.86678501031247
0.96446195000000 1.57663317000000 103.00000000000000 -1.86682063809883
0.96446195000000 1.58291457000000 103.00000000000000 -1.86685553760219
0.96446195000000 1.58919598000000 103.00000000000000 -1.86688972597892
0.96446195000000 1.59547739000000 103.00000000000000 -1.86692322283420
0.96446195000000 1.60175879000000 103.00000000000000 -1.86695604653028
0.96446195000000 1.60804020000000 103.00000000000000 -1.86698821516711
0.96446195000000 1.61432161000000 103.00000000000000 -1.86701974766686
0.96446195000000 1.62060302000000 103.00000000000000 -1.86705066146897
0.96446195000000 1.62688442000000 103.00000000000000 -1.86708097494829
0.96446195000000 1.63316583000000 103.00000000000000 -1.86711070581396
0.96446195000000 1.63944724000000 103.00000000000000 -1.86713987088331
0.96446195000000 1.64572864000000 103.00000000000000 -1.86716848845515
0.96446195000000 1.65201005000000 103.00000000000000 -1.86719657604954
0.96446195000000 1.65829146000000 103.00000000000000 -1.86722414969643
0.96446195000000 1.66457286000000 103.00000000000000 -1.86725122793450
0.96446195000000 1.67085427000000 103.00000000000000 -1.86727782613229
0.96446195000000 1.67713568000000 103.00000000000000 -1.86730396124858
0.96446195000000 1.68341709000000 103.00000000000000 -1.86732965040517
0.96446195000000 1.68969849000000 103.00000000000000 -1.86735490841977
0.96446195000000 1.69597990000000 103.00000000000000 -1.86737975245603
0.96446195000000 1.70226131000000 103.00000000000000 -1.86740419790715
0.96446195000000 1.70854271000000 103.00000000000000 -1.86742826000273
0.96446195000000 1.71482412000000 103.00000000000000 -1.86745195439278
0.96446195000000 1.72110553000000 103.00000000000000 -1.86747529586364
0.96446195000000 1.72738693000000 103.00000000000000 -1.86749829885855
0.96446195000000 1.73366834000000 103.00000000000000 -1.86752097828344
0.96446195000000 1.73994975000000 103.00000000000000 -1.86754334771729
0.96446195000000 1.74623116000000 103.00000000000000 -1.86756542074841
0.96446195000000 1.75251256000000 103.00000000000000 -1.86758721101421
0.96446195000000 1.75879397000000 103.00000000000000 -1.86760873160210
0.96446195000000 1.76507538000000 103.00000000000000 -1.86762999535460
0.96446195000000 1.77135678000000 103.00000000000000 -1.86765101318929
0.96446195000000 1.77763819000000 103.00000000000000 -1.86767179775677
0.96446195000000 1.78391960000000 103.00000000000000 -1.86769236104294
0.96446195000000 1.79020101000000 103.00000000000000 -1.86771271258203
0.96446195000000 1.79648241000000 103.00000000000000 -1.86773286350456
0.96446195000000 1.80276382000000 103.00000000000000 -1.86775282353597
0.96446195000000 1.80904523000000 103.00000000000000 -1.86777260226722
0.96446195000000 1.81532663000000 103.00000000000000 -1.86779220889400
0.96446195000000 1.82160804000000 103.00000000000000 -1.86781165161403
0.96446195000000 1.82788945000000 103.00000000000000 -1.86783093902648
0.96446195000000 1.83417085000000 103.00000000000000 -1.86785007733749
0.96446195000000 1.84045226000000 103.00000000000000 -1.86786907509850
0.96446195000000 1.85301508000000 103.00000000000000 -1.86790667110245
0.96446195000000 1.85929648000000 103.00000000000000 -1.86792528184742
0.96446195000000 1.86557789000000 103.00000000000000 -1.86794377383455
0.96446195000000 1.87185930000000 103.00000000000000 -1.86796215175650
0.96446195000000 1.87814070000000 103.00000000000000 -1.86798042024350
0.96446195000000 1.88442211000000 103.00000000000000 -1.86799858167035
0.96446195000000 1.89070352000000 103.00000000000000 -1.86801663983852
0.96446195000000 1.89698492000000 103.00000000000000 -1.86803459736120
0.96446195000000 1.90326633000000 103.00000000000000 -1.86805245526330
0.96446195000000 1.91582915000000 103.00000000000000 -1.86808788206110
0.96446195000000 1.94095477000000 103.00000000000000 -1.86815758966748
0.96446195000000 1.94723618000000 103.00000000000000 -1.86817477743170
0.96446195000000 1.95351759000000 103.00000000000000 -1.86819186793377
0.96446195000000 1.95979899000000 103.00000000000000 -1.86820885910424
0.96446195000000 1.96608040000000 103.00000000000000 -1.86822575030703
0.96446195000000 1.97236181000000 103.00000000000000 -1.86824253860402
0.96446195000000 1.97864322000000 103.00000000000000 -1.86825922210539
0.96446195000000 1.98492462000000 103.00000000000000 -1.86827579829594
0.96446195000000 2.00376884000000 103.00000000000000 -1.86832485351238
0.96446195000000 2.01005025000000 103.00000000000000 -1.86834097021688
0.96446195000000 2.02889447000000 103.00000000000000 -1.86838856911334
0.96446195000000 2.03517588000000 103.00000000000000 -1.86840417285623
0.96446195000000 2.04773869000000 103.00000000000000 -1.86843496268955
0.96446195000000 2.05402010000000 103.00000000000000 -1.86845014150890
0.96446195000000 2.07286432000000 103.00000000000000 -1.86849476925590
0.96446195000000 2.08542714000000 103.00000000000000 -1.86852372464728
0.96446195000000 2.09798995000000 103.00000000000000 -1.86855201123319
0.96446195000000 2.10427136000000 103.00000000000000 -1.86856589424883
0.96446195000000 2.11055276000000 103.00000000000000 -1.86857959986469
0.96446195000000 2.19849246000000 103.00000000000000 -1.86875142555436
0.96446195000000 1.68888476000000  44.22110553000000 -1.86530525767705
0.96446195000000 1.68888476000000  45.62814070000000 -1.86547483859897
0.96446195000000 1.68888476000000  46.33165829000000 -1.86554984638417
0.96446195000000 1.68888476000000  47.03517588000000 -1.86561839919295
0.96446195000000 1.68888476000000  47.73869347000000 -1.86568065556071
0.96446195000000 1.68888476000000  48.44221106000000 -1.86573685447252
0.96446195000000 1.68888476000000  49.14572864000000 -1.86578731320640
0.96446195000000 1.68888476000000  49.84924623000000 -1.86583241637777
0.96446195000000 1.68888476000000  50.55276382000000 -1.86587261044860
0.96446195000000 1.68888476000000  51.25628141000000 -1.86590839026167
0.96446195000000 1.68888476000000  54.77386935000000 -1.86604028834563
0.96446195000000 1.68888476000000  55.47738693000000 -1.86606117367364
0.96446195000000 1.68888476000000  56.18090452000000 -1.86608145359878
0.96446195000000 1.68888476000000  56.88442211000000 -1.86610158474002
0.96446195000000 1.68888476000000  57.58793970000000 -1.86612197396539
0.96446195000000 1.68888476000000  58.29145729000000 -1.86614297563131
0.96446195000000 1.68888476000000  58.99497487000000 -1.86616488860807
0.96446195000000 1.68888476000000  59.69849246000000 -1.86618795232471
0.96446195000000 1.68888476000000  60.40201005000000 -1.86621234811150
0.96446195000000 1.68888476000000  61.10552764000000 -1.86623820405157
0.96446195000000 1.68888476000000  62.51256281000000 -1.86629452959573
0.96446195000000 1.68888476000000  63.91959799000000 -1.86635694376866
0.96446195000000 1.68888476000000  64.62311558000000 -1.86639026224077
0.96446195000000 1.68888476000000  65.32663316999999 -1.86642483386413
0.96446195000000 1.68888476000000  66.03015075000000 -1.86646051493528
0.96446195000000 1.68888476000000  66.73366833999999 -1.86649714321163
0.96446195000000 1.68888476000000  67.43718593000000 -1.86653454737575
0.96446195000000 1.68888476000000  68.14070352000000 -1.86657254749525
0.96446195000000 1.68888476000000  68.84422111000001 -1.86661096179716
0.96446195000000 1.68888476000000  69.54773869000000 -1.86664960912697
0.96446195000000 1.68888476000000  70.25125628000001 -1.86668831129145
0.96446195000000 1.68888476000000  70.95477387000000 -1.86672689786747
0.96446195000000 1.68888476000000  71.65829146000000 -1.86676520347999
0.96446195000000 1.68888476000000  72.36180905000001 -1.86680307395341
0.96446195000000 1.68888476000000  73.06532663000000 -1.86684036442807
0.96446195000000 1.68888476000000  73.76884422000001 -1.86687694108366
0.96446195000000 1.68888476000000  74.47236181000000 -1.86691267974106
0.96446195000000 1.68888476000000  75.17587940000000 -1.86694746935257
0.96446195000000 1.68888476000000  75.87939698000000 -1.86698120848939
0.96446195000000 1.68888476000000  76.58291457000000 -1.86701380791578
0.96446195000000 1.68888476000000  77.28643216000000 -1.86704518850649
0.96446195000000 1.68888476000000  77.98994974999999 -1.86707528149657
0.96446195000000 1.68888476000000  78.69346734000000 -1.86710402908477
0.96446195000000 1.68888476000000  79.39698491999999 -1.86713138362427
0.96446195000000 1.68888476000000  80.10050251000000 -1.86715730693652
0.96446195000000 1.68888476000000  80.80402010000000 -1.86718176932504
0.96446195000000 1.68888476000000  81.50753769000001 -1.86720475179618
0.96446195000000 1.68888476000000  82.21105528000000 -1.86722624364540
0.96446195000000 1.68888476000000  82.91457286000001 -1.86724624122041
0.96446195000000 1.68888476000000  83.61809045000000 -1.86726475094088
0.96446195000000 1.68888476000000  84.32160804000000 -1.86728178543285
0.96446195000000 1.68888476000000  85.02512563000001 -1.86729736494738
0.96446195000000 1.68888476000000  85.72864322000000 -1.86731151637173
0.96446195000000 1.68888476000000  86.43216080000001 -1.86732427249967
0.96446195000000 1.68888476000000  87.13567839000000 -1.86733567169927
0.96446195000000 1.68888476000000  87.83919598000000 -1.86734575865205
0.96446195000000 1.68888476000000  88.54271357000000 -1.86735458003125
0.96446195000000 1.68888476000000  89.24623115999999 -1.86736218816907
0.96446195000000 1.68888476000000  89.94974874000000 -1.86736863902229
0.96446195000000 1.68888476000000  90.65326632999999 -1.86737398930995
0.96446195000000 1.68888476000000  91.35678392000000 -1.86737829958020
0.96446195000000 1.68888476000000  92.06030151000000 -1.86738163030418
0.96446195000000 1.68888476000000  92.76381910000001 -1.86738404435846
0.96446195000000 1.68888476000000  93.46733668000000 -1.86738560313370
0.96446195000000 1.68888476000000  94.17085427000001 -1.86738636907432
0.96446195000000 1.68888476000000  94.87437186000000 -1.86738640377826
0.96446195000000 1.68888476000000  95.57788945000000 -1.86738576773701
0.96446195000000 1.68888476000000  96.28140704000000 -1.86738451879808
0.96446195000000 1.68888476000000  96.98492462000000 -1.86738271353465
0.96446195000000 1.68888476000000  97.68844221000001 -1.86738040718524
0.96446195000000 1.68888476000000  98.39195980000000 -1.86737765095927
0.96446195000000 1.68888476000000  99.09547739000000 -1.86737449429893
0.96446195000000 1.68888476000000  99.79899497000000 -1.86737098350602
0.96446195000000 1.68888476000000 100.50251256000000 -1.86736716131350
0.96446195000000 1.68888476000000 101.20603015000000 -1.86736306933278
0.96446195000000 1.68888476000000 101.90954773999999 -1.86735874479587
0.96446195000000 1.68888476000000 102.61306533000000 -1.86735422069091
0.96446195000000 1.68888476000000 103.31658290999999 -1.86734953112909
0.96446195000000 1.68888476000000 104.02010050000000 -1.86734470205124
0.96446195000000 1.68888476000000 104.72361809000000 -1.86733976118262
0.96446195000000 1.68888476000000 105.42713568000001 -1.86733473164986
0.96446195000000 1.68888476000000 106.13065327000000 -1.86732963350232
0.96446195000000 1.68888476000000 106.83417085000001 -1.86732448724786
0.96446195000000 1.68888476000000 107.53768844000000 -1.86731930860128
0.96446195000000 1.68888476000000 108.24120603000000 -1.86731411261610
0.96446195000000 1.68888476000000 108.94472362000000 -1.86730891224852
0.96446195000000 1.68888476000000 109.64824120999999 -1.86730372049476
0.96446195000000 1.68888476000000 110.35175879000001 -1.86729854633654
0.96446195000000 1.68888476000000 111.05527638000000 -1.86729339922829
0.96446195000000 1.68888476000000 111.75879397000000 -1.86728828868729
0.96446195000000 1.68888476000000 112.46231156000000 -1.86728322095928
0.96446195000000 1.68888476000000 113.16582914999999 -1.86727820203475
0.96446195000000 1.68888476000000 113.86934673000000 -1.86727323901789
0.96446195000000 1.68888476000000 114.57286431999999 -1.86726833718023
0.96446195000000 1.68888476000000 118.79396985000000 -1.86724045226208
0.96446195000000 1.68888476000000 119.49748744000000 -1.86723609265482
0.96446195000000 1.68888476000000 120.20100503000000 -1.86723182331127
0.96446195000000 1.68888476000000 120.90452261000000 -1.86722764676438
0.96446195000000 1.68888476000000 121.60804020000000 -1.86722356365419
0.96446195000000 1.68888476000000 122.31155778999999 -1.86721957551561
0.96446195000000 1.68888476000000 123.01507538000000 -1.86721568341534
0.96446195000000 1.68888476000000 123.71859296000000 -1.86721188786919
0.96446195000000 1.68888476000000 124.42211055000000 -1.86720818884100
0.96446195000000 1.68888476000000 125.12562814000000 -1.86720458484012
0.96446195000000 1.68888476000000 125.82914572999999 -1.86720107552310
0.96446195000000 1.68888476000000 126.53266332000000 -1.86719765852172
0.96446195000000 1.68888476000000 127.23618089999999 -1.86719433048086
0.96446195000000 1.68888476000000 127.93969849000000 -1.86719108947204
0.96446195000000 1.68888476000000 128.64321608000000 -1.86718793067666
0.96446195000000 1.68888476000000 129.34673366999999 -1.86718484907067
0.96446195000000 1.68888476000000 130.05025126000001 -1.86718184043912
0.96446195000000 1.68888476000000 130.75376883999999 -1.86717889660292
0.96446195000000 1.68888476000000 131.45728643000001 -1.86717601277451
0.96446195000000 1.68888476000000 132.16080402000000 -1.86717317959472
0.96446195000000 1.68888476000000 132.86432160999999 -1.86717038913719
0.96446195000000 1.68888476000000 133.56783920000001 -1.86716763284596
0.96446195000000 1.68888476000000 134.27135677999999 -1.86716489993626
0.96446195000000 1.68888476000000 134.97487437000001 -1.86716217964317
0.96446195000000 1.68888476000000 135.67839196000000 -1.86715946187428
0.96446195000000 1.68888476000000 136.38190954999999 -1.86715673406752
0.96446195000000 1.68888476000000 137.08542714000001 -1.86715398296633
0.96446195000000 1.68888476000000 137.78894471999999 -1.86715119576854
0.96446195000000 1.68888476000000 138.49246231000001 -1.86714835919679
0.96446195000000 1.68888476000000 139.19597990000000 -1.86714545842972
0.96446195000000 1.68888476000000 139.89949748999999 -1.86714247817361
0.96446195000000 1.68888476000000 140.60301508000001 -1.86713940438096
0.96446195000000 1.68888476000000 141.30653265999999 -1.86713622103639
0.96446195000000 1.68888476000000 142.01005025000001 -1.86713291161902
0.96446195000000 1.68888476000000 142.71356784000000 -1.86712946027239
0.96446195000000 1.68888476000000 143.41708542999999 -1.86712585099917
0.96446195000000 1.68888476000000 144.12060302000000 -1.86712206710683
0.96446195000000 1.68888476000000 144.82412059999999 -1.86711809284395
0.96446195000000 1.68888476000000 145.52763819000000 -1.86711391159486
0.96446195000000 1.68888476000000 146.23115577999999 -1.86710950831366
0.96446195000000 1.68888476000000 146.93467337000001 -1.86710486760842
0.96446195000000 1.68888476000000 147.63819094999999 -1.86709997453067
0.96446195000000 1.68888476000000 148.34170854000001 -1.86709481572598
0.96446195000000 1.68888476000000 149.04522613000000 -1.86708937741844
0.96446195000000 1.68888476000000 149.74874371999999 -1.86708364840194
0.96446195000000 1.68888476000000 150.45226131000001 -1.86707761809521
0.96446195000000 1.68888476000000 151.15577888999999 -1.86707127715658
0.96446195000000 1.68888476000000 151.85929648000001 -1.86706462037523
0.96446195000000 1.68888476000000 152.56281407000000 -1.86705763969792
0.96446195000000 1.68888476000000 153.26633165999999 -1.86705033421663
0.96446195000000 1.68888476000000 156.78391959999999 -1.86700897350931
0.96446195000000 1.68888476000000 157.48743719000001 -1.86699978453601
0.96446195000000 1.68888476000000 158.19095476999999 -1.86699032014462
0.96446195000000 1.68888476000000 158.89447236000001 -1.86698059841183
0.96446195000000 1.68888476000000 159.59798995000000 -1.86697064103987
0.96446195000000 1.68888476000000 160.30150753999999 -1.86696047442683
0.96446195000000 1.68888476000000 161.00502513000001 -1.86695012498876
0.96446195000000 1.68888476000000 161.70854270999999 -1.86693962524032
0.96446195000000 1.68888476000000 162.41206030000001 -1.86692900749460
0.96446195000000 1.68888476000000 163.11557789000000 -1.86691830772475
0.96446195000000 1.68888476000000 163.81909547999999 -1.86690756366136
0.96446195000000 1.68888476000000 164.52261307000001 -1.86689681962775
0.96446195000000 1.68888476000000 165.22613064999999 -1.86688611478189
0.96446195000000 1.68888476000000 165.92964824000001 -1.86687549316980
0.96446195000000 1.68888476000000 166.63316583000000 -1.86686499987297
0.96446195000000 1.68888476000000 167.33668342000001 -1.86685468389135
0.96446195000000 1.68888476000000 168.04020101000000 -1.86684458840705
0.96446195000000 1.68888476000000 168.74371858999999 -1.86683475977475
0.96446195000000 1.68888476000000 169.44723618000000 -1.86682524924731
0.96446195000000 1.68888476000000 170.15075376999999 -1.86681609682614
0.96446195000000 1.68888476000000 171.55778893999999 -1.86679905737003
0.96446195000000 1.68888476000000 172.26130653000001 -1.86679125460466
0.96446195000000 1.68888476000000 172.96482412000000 -1.86678398210790
0.96446195000000 1.68888476000000 173.66834170999999 -1.86677728138909
0.96446195000000 1.68888476000000 174.37185930000001 -1.86677118502519
0.96446195000000 1.68888476000000 175.07537687999999 -1.86676572613032
0.96446195000000 1.68888476000000 175.77889447000001 -1.86676093317556
0.96446195000000 1.68888476000000 176.48241206000000 -1.86675683357407
0.96446195000000 1.68888476000000 177.18592964999999 -1.86675344790592
0.96446195000000 1.68888476000000 177.88944724000001 -1.86675079535087
0.96446195000000 1.68888476000000 178.59296481999999 -1.86674888996868
0.96446195000000 1.68888476000000 179.29648241000001 -1.86674774316657
end