structural
morse    2
rOHe    0   0   0    0          0.96446195
rOCle   0   0   0    0          1.68888476
alphae  0   0   0    0          103.000000
am1     0   0   0    0          1.00000000
am2     0   0   0    0          1.00000000
end

linear
f    0   0   0    1     0.00000
f    0   0   1    1     0.00000
f    0   0   2    1     0.00000
f    0   0   3    1     0.00000
f    0   0   4    1     0.00000
f    0   0   5    1     0.00000
f    0   0   6    1     0.00000
f    0   0   7    1     0.00000
f    0   0   8    1     0.00000
f    0   0   9    1     0.00000
f    0   0  10    1     0.00000
f    0   0  11    1     0.00000
f    0   0  12    1     0.00000
end

grid
0.96446195000000 1.68888476000000 103.00000000000000 -535.47563143287516
0.96446195000000 1.68888476000000  44.22110553000000 -535.33112445055372
0.96446195000000 1.68888476000000  45.62814070000000 -535.34095890249932
0.96446195000000 1.68888476000000  46.33165829000000 -535.34559691434447
0.96446195000000 1.68888476000000  47.03517588000000 -535.35006157827672
0.96446195000000 1.68888476000000  47.73869347000000 -535.35436193364978
0.96446195000000 1.68888476000000  48.44221106000000 -535.35850658644506
0.96446195000000 1.68888476000000  49.14572864000000 -535.36250369820846
0.96446195000000 1.68888476000000  49.84924623000000 -535.36636100037163
0.96446195000000 1.68888476000000  50.55276382000000 -535.37008580535291
0.96446195000000 1.68888476000000  51.25628141000000 -535.37368501102355
0.96446195000000 1.68888476000000  54.77386935000000 -535.39001091101272
0.96446195000000 1.68888476000000  55.47738693000000 -535.39297969998393
0.96446195000000 1.68888476000000  56.18090452000000 -535.39586063495813
0.96446195000000 1.68888476000000  56.88442211000000 -535.39865778398678
0.96446195000000 1.68888476000000  57.58793970000000 -535.40137491670805
0.96446195000000 1.68888476000000  58.29145729000000 -535.40401553854804
0.96446195000000 1.68888476000000  58.99497487000000 -535.40658289241924
0.96446195000000 1.68888476000000  59.69849246000000 -535.40907998418061
0.96446195000000 1.68888476000000  60.40201005000000 -535.41150959201570
0.96446195000000 1.68888476000000  61.10552764000000 -535.41387428083272
0.96446195000000 1.68888476000000  62.51256281000000 -535.41841818077512
0.96446195000000 1.68888476000000  63.91959799000000 -535.42272846415597
0.96446195000000 1.68888476000000  64.62311558000000 -535.42480053504380
0.96446195000000 1.68888476000000  65.32663316999999 -535.42681935043333
0.96446195000000 1.68888476000000  66.03015075000000 -535.42878635108855
0.96446195000000 1.68888476000000  66.73366833999999 -535.43070285341162
0.96446195000000 1.68888476000000  67.43718593000000 -535.43257006991371
0.96446195000000 1.68888476000000  68.14070352000000 -535.43438911571661
0.96446195000000 1.68888476000000  68.84422111000001 -535.43616101216708
0.96446195000000 1.68888476000000  69.54773869000000 -535.43788670071945
0.96446195000000 1.68888476000000  70.25125628000001 -535.43956704813093
0.96446195000000 1.68888476000000  70.95477387000000 -535.44120284951248
0.96446195000000 1.68888476000000  71.65829146000000 -535.44279484011588
0.96446195000000 1.68888476000000  72.36180905000001 -535.44434369727639
0.96446195000000 1.68888476000000  73.06532663000000 -535.44585005012561
0.96446195000000 1.68888476000000  73.76884422000001 -535.44731447309607
0.96446195000000 1.68888476000000  74.47236181000000 -535.44873751003297
0.96446195000000 1.68888476000000  75.17587940000000 -535.45011965653532
0.96446195000000 1.68888476000000  75.87939698000000 -535.45146138467044
0.96446195000000 1.68888476000000  76.58291457000000 -535.45276312804128
0.96446195000000 1.68888476000000  77.28643216000000 -535.45402529185742
0.96446195000000 1.68888476000000  77.98994974999999 -535.45524826835310
0.96446195000000 1.68888476000000  78.69346734000000 -535.45643242090011
0.96446195000000 1.68888476000000  79.39698491999999 -535.45757809278712
0.96446195000000 1.68888476000000  80.10050251000000 -535.45868561715497
0.96446195000000 1.68888476000000  80.80402010000000 -535.45975530615101
0.96446195000000 1.68888476000000  81.50753769000001 -535.46078746904732
0.96446195000000 1.68888476000000  82.21105528000000 -535.46178239684980
0.96446195000000 1.68888476000000  82.91457286000001 -535.46274037354976
0.96446195000000 1.68888476000000  83.61809045000000 -535.46366167968938
0.96446195000000 1.68888476000000  84.32160804000000 -535.46454658951120
0.96446195000000 1.68888476000000  85.02512563000001 -535.46539536437081
0.96446195000000 1.68888476000000  85.72864322000000 -535.46620827104994
0.96446195000000 1.68888476000000  86.43216080000001 -535.46698556874412
0.96446195000000 1.68888476000000  87.13567839000000 -535.46772751819003
0.96446195000000 1.68888476000000  87.83919598000000 -535.46843436894221
0.96446195000000 1.68888476000000  88.54271357000000 -535.46910638527470
0.96446195000000 1.68888476000000  89.24623115999999 -535.46974381513519
0.96446195000000 1.68888476000000  89.94974874000000 -535.47034691331805
0.96446195000000 1.68888476000000  90.65326632999999 -535.47091593295079
0.96446195000000 1.68888476000000  91.35678392000000 -535.47145113475256
0.96446195000000 1.68888476000000  92.06030151000000 -535.47195277106152
0.96446195000000 1.68888476000000  92.76381910000001 -535.47242109516253
0.96446195000000 1.68888476000000  93.46733668000000 -535.47285636898471
0.96446195000000 1.68888476000000  94.17085427000001 -535.47325885135308
0.96446195000000 1.68888476000000  94.87437186000000 -535.47362880243998
0.96446195000000 1.68888476000000  95.57788945000000 -535.47396648292772
0.96446195000000 1.68888476000000  96.28140704000000 -535.47427215840219
0.96446195000000 1.68888476000000  96.98492462000000 -535.47454609601743
0.96446195000000 1.68888476000000  97.68844221000001 -535.47478856053874
0.96446195000000 1.68888476000000  98.39195980000000 -535.47499982372938
0.96446195000000 1.68888476000000  99.09547739000000 -535.47518015861658
0.96446195000000 1.68888476000000  99.79899497000000 -535.47532983528640
0.96446195000000 1.68888476000000 100.50251256000000 -535.47544913208753
0.96446195000000 1.68888476000000 101.20603015000000 -535.47553832441167
0.96446195000000 1.68888476000000 101.90954773999999 -535.47559769179429
0.96446195000000 1.68888476000000 102.61306533000000 -535.47562751848602
0.96446195000000 1.68888476000000 103.31658290999999 -535.47562808644750
0.96446195000000 1.68888476000000 104.02010050000000 -535.47559967940413
0.96446195000000 1.68888476000000 104.72361809000000 -535.47554258921218
0.96446195000000 1.68888476000000 105.42713568000001 -535.47545710266741
0.96446195000000 1.68888476000000 106.13065327000000 -535.47534351017555
0.96446195000000 1.68888476000000 106.83417085000001 -535.47520210811024
0.96446195000000 1.68888476000000 107.53768844000000 -535.47503319054840
0.96446195000000 1.68888476000000 108.24120603000000 -535.47483705761204
0.96446195000000 1.68888476000000 108.94472362000000 -535.47461400484337
0.96446195000000 1.68888476000000 109.64824120999999 -535.47436433902828
0.96446195000000 1.68888476000000 110.35175879000001 -535.47408836031116
0.96446195000000 1.68888476000000 111.05527638000000 -535.47378638061684
0.96446195000000 1.68888476000000 111.75879397000000 -535.47345870179038
0.96446195000000 1.68888476000000 112.46231156000000 -535.47310564008296
0.96446195000000 1.68888476000000 113.16582914999999 -535.47272750623029
0.96446195000000 1.68888476000000 113.86934673000000 -535.47232461925478
0.96446195000000 1.68888476000000 114.57286431999999 -535.47189729524769
0.96446195000000 1.68888476000000 118.79396985000000 -535.46883842843022
0.96446195000000 1.68888476000000 119.49748744000000 -535.46824923351960
0.96446195000000 1.68888476000000 120.20100503000000 -535.46763826863855
0.96446195000000 1.68888476000000 120.90452261000000 -535.46700587995929
0.96446195000000 1.68888476000000 121.60804020000000 -535.46635242459956
0.96446195000000 1.68888476000000 122.31155778999999 -535.46567825935051
0.96446195000000 1.68888476000000 123.01507538000000 -535.46498374709290
0.96446195000000 1.68888476000000 123.71859296000000 -535.46426925906235
0.96446195000000 1.68888476000000 124.42211055000000 -535.46353517008572
0.96446195000000 1.68888476000000 125.12562814000000 -535.46278185714345
0.96446195000000 1.68888476000000 125.82914572999999 -535.46200971094322
0.96446195000000 1.68888476000000 126.53266332000000 -535.46121912001001
0.96446195000000 1.68888476000000 127.23618089999999 -535.46041048642303
0.96446195000000 1.68888476000000 127.93969849000000 -535.45958421707758
0.96446195000000 1.68888476000000 128.64321608000000 -535.45874072399499
0.96446195000000 1.68888476000000 129.34673366999999 -535.45788042482400
0.96446195000000 1.68888476000000 130.05025126000001 -535.45700375660999
0.96446195000000 1.68888476000000 130.75376883999999 -535.45611114803546
0.96446195000000 1.68888476000000 131.45728643000001 -535.45520305034836
0.96446195000000 1.68888476000000 132.16080402000000 -535.45427991580709
0.96446195000000 1.68888476000000 132.86432160999999 -535.45334221447024
0.96446195000000 1.68888476000000 133.56783920000001 -535.45239041195168
0.96446195000000 1.68888476000000 134.27135677999999 -535.45142499651172
0.96446195000000 1.68888476000000 134.97487437000001 -535.45044646514884
0.96446195000000 1.68888476000000 135.67839196000000 -535.44945532173119
0.96446195000000 1.68888476000000 136.38190954999999 -535.44845208428274
0.96446195000000 1.68888476000000 137.08542714000001 -535.44743728154731
0.96446195000000 1.68888476000000 137.78894471999999 -535.44641145826245
0.96446195000000 1.68888476000000 138.49246231000001 -535.44537516829098
0.96446195000000 1.68888476000000 139.19597990000000 -535.44432898039850
0.96446195000000 1.68888476000000 139.89949748999999 -535.44327347902947
0.96446195000000 1.68888476000000 140.60301508000001 -535.44220926234414
0.96446195000000 1.68888476000000 141.30653265999999 -535.44113694117664
0.96446195000000 1.68888476000000 142.01005025000001 -535.44005714876891
0.96446195000000 1.68888476000000 142.71356784000000 -535.43897052745513
0.96446195000000 1.68888476000000 143.41708542999999 -535.43787773923441
0.96446195000000 1.68888476000000 144.12060302000000 -535.43677946770549
0.96446195000000 1.68888476000000 144.82412059999999 -535.43567641056097
0.96446195000000 1.68888476000000 145.52763819000000 -535.43456928629507
0.96446195000000 1.68888476000000 146.23115577999999 -535.43345883340203
0.96446195000000 1.68888476000000 146.93467337000001 -535.43234580864873
0.96446195000000 1.68888476000000 147.63819094999999 -535.43123099393210
0.96446195000000 1.68888476000000 148.34170854000001 -535.43011518902620
0.96446195000000 1.68888476000000 149.04522613000000 -535.42899921890580
0.96446195000000 1.68888476000000 149.74874371999999 -535.42788392973330
0.96446195000000 1.68888476000000 150.45226131000001 -535.42677019412679
0.96446195000000 1.68888476000000 151.15577888999999 -535.42565890594892
0.96446195000000 1.68888476000000 151.85929648000001 -535.42455098625874
0.96446195000000 1.68888476000000 152.56281407000000 -535.42344738234056
0.96446195000000 1.68888476000000 153.26633165999999 -535.42234906352860
0.96446195000000 1.68888476000000 156.78391959999999 -535.41697266865037
0.96446195000000 1.68888476000000 157.48743719000001 -535.41592798623276
0.96446195000000 1.68888476000000 158.19095476999999 -535.41489614841805
0.96446195000000 1.68888476000000 158.89447236000001 -535.41387834234058
0.96446195000000 1.68888476000000 159.59798995000000 -535.41287578372805
0.96446195000000 1.68888476000000 160.30150753999999 -535.41188970556732
0.96446195000000 1.68888476000000 161.00502513000001 -535.41092137107273
0.96446195000000 1.68888476000000 161.70854270999999 -535.40997206283396
0.96446195000000 1.68888476000000 162.41206030000001 -535.40904308266920
0.96446195000000 1.68888476000000 163.11557789000000 -535.40813575596894
0.96446195000000 1.68888476000000 163.81909547999999 -535.40725141564974
0.96446195000000 1.68888476000000 164.52261307000001 -535.40639140694168
0.96446195000000 1.68888476000000 165.22613064999999 -535.40555709368175
0.96446195000000 1.68888476000000 165.92964824000001 -535.40474983489992
0.96446195000000 1.68888476000000 166.63316583000000 -535.40397099496920
0.96446195000000 1.68888476000000 167.33668342000001 -535.40322193454790
0.96446195000000 1.68888476000000 168.04020101000000 -535.40250400141019
0.96446195000000 1.68888476000000 168.74371858999999 -535.40181853221600
0.96446195000000 1.68888476000000 169.44723618000000 -535.40116684157772
0.96446195000000 1.68888476000000 170.15075376999999 -535.40055021390685
0.96446195000000 1.68888476000000 171.55778893999999 -535.39942712142681
0.96446195000000 1.68888476000000 172.26130653000001 -535.39892302679618
0.96446195000000 1.68888476000000 172.96482412000000 -535.39845872563080
0.96446195000000 1.68888476000000 173.66834170999999 -535.39803526265280
0.96446195000000 1.68888476000000 174.37185930000001 -535.39765360320598
0.96446195000000 1.68888476000000 175.07537687999999 -535.39731464005285
0.96446195000000 1.68888476000000 175.77889447000001 -535.39701917670573
0.96446195000000 1.68888476000000 176.48241206000000 -535.39676792412718
0.96446195000000 1.68888476000000 177.18592964999999 -535.39656149927009
0.96446195000000 1.68888476000000 177.88944724000001 -535.39640041053747
0.96446195000000 1.68888476000000 178.59296481999999 -535.39628505532130
0.96446195000000 1.68888476000000 179.29648241000001 -535.39621572603380
end