structural
morse    2
rOHe    0   0   0    0          0.96446195
rOCle   0   0   0    0          1.68888476
alphae  0   0   0    0          103.000000
am1     0   0   0    0          1.00000000
am2     0   0   0    0          1.00000000
end

linear
f    0   0   0    1     0.0000000
f    0   0   1    1     0.0000000
f    0   0   2    1     0.0000000
f    0   0   3    1     0.0000000
f    0   0   4    1     0.0000000
f    0   0   5    1     0.0000000
f    0   0   6    1     0.0000000
f    0   0   7    1     0.0000000
f    0   0   8    1     0.0000000
f    0   0   9    1     0.0000000
f    0   0  10    1     0.0000000
f    0   0  11    1     0.0000000
f    0   0  12    1     0.0000000
f    0   0  13    1     0.0000000
f    0   0  14    1     0.0000000
end

grid
0.96446195000000 1.68888476000000 103.00000000000000 -535.47204147150296
0.96446195000000 1.68888476000000 180.00000000000000 -535.39259554684497
0.96446195000000 1.68888476000000 103.31658290999999 -535.47203848665197
0.96446195000000 1.68888476000000 104.02010050000000 -535.47201089808505
0.96446195000000 1.68888476000000 104.72361809000000 -535.47195464308095
0.96446195000000 1.68888476000000 105.42713568000001 -535.47187000669203
0.96446195000000 1.68888476000000 106.13065327000000 -535.47175727699403
0.96446195000000 1.68888476000000 106.83417085000001 -535.47161674689096
0.96446195000000 1.68888476000000 107.53768844000000 -535.47144870824798
0.96446195000000 1.68888476000000 108.24120603000000 -535.47125345776999
0.96446195000000 1.68888476000000 108.94472362000000 -535.47103128935498
0.96446195000000 1.68888476000000 109.64824120999999 -535.47078250584900
0.96446195000000 1.68888476000000 110.35175879000001 -535.47050740583495
0.96446195000000 1.68888476000000 111.05527638000000 -535.47020629703002
0.96446195000000 1.68888476000000 111.75879397000000 -535.46987948081005
0.96446195000000 1.68888476000000 112.46231156000000 -535.46952726951599
0.96446195000000 1.68888476000000 113.16582914999999 -535.46914997236297
0.96446195000000 1.68888476000000 113.86934673000000 -535.46874790562003
0.96446195000000 1.68888476000000 114.57286431999999 -535.46832138391005
0.96446195000000 1.68888476000000 118.79396985000000 -535.46526685970400
0.96446195000000 1.68888476000000 119.49748744000000 -535.46467829954497
0.96446195000000 1.68888476000000 120.20100503000000 -535.46406794131497
0.96446195000000 1.68888476000000 120.90452261000000 -535.46343613170200
0.96446195000000 1.68888476000000 121.60804020000000 -535.46278322694400
0.96446195000000 1.68888476000000 122.31155778999999 -535.46210958407698
0.96446195000000 1.68888476000000 123.01507538000000 -535.46141556652697
0.96446195000000 1.68888476000000 123.71859296000000 -535.46070154472397
0.96446195000000 1.68888476000000 124.42211055000000 -535.45996789381604
0.96446195000000 1.68888476000000 125.12562814000000 -535.45921499179997
0.96446195000000 1.68888476000000 125.82914572999999 -535.45844322857795
0.96446195000000 1.68888476000000 126.53266332000000 -535.45765299398897
0.96446195000000 1.68888476000000 127.23618089999999 -535.45684468967602
0.96446195000000 1.68888476000000 127.93969849000000 -535.45601872304701
0.96446195000000 1.68888476000000 128.64321608000000 -535.45517550638397
0.96446195000000 1.68888476000000 129.34673366999999 -535.45431545886095
0.96446195000000 1.68888476000000 130.05025126000001 -535.45343901576200
0.96446195000000 1.68888476000000 130.75376883999999 -535.45254660839100
0.96446195000000 1.68888476000000 131.45728643000001 -535.45163868666498
0.96446195000000 1.68888476000000 132.16080402000000 -535.45071570383902
0.96446195000000 1.68888476000000 132.86432160999999 -535.44977812885804
0.96446195000000 1.68888476000000 133.56783920000001 -535.44882642963205
0.96446195000000 1.68888476000000 134.27135677999999 -535.44786109351196
0.96446195000000 1.68888476000000 134.97487437000001 -535.44688261729198
0.96446195000000 1.68888476000000 135.67839196000000 -535.44589150530396
0.96446195000000 1.68888476000000 136.38190954999999 -535.44488827546400
0.96446195000000 1.68888476000000 137.08542714000001 -535.44387345703797
0.96446195000000 1.68888476000000 137.78894471999999 -535.44284759392804
0.96446195000000 1.68888476000000 138.49246231000001 -535.44181124026295
0.96446195000000 1.68888476000000 139.19597990000000 -535.44076496490004
0.96446195000000 1.68888476000000 139.89949748999999 -535.43970935154891
0.96446195000000 1.68888476000000 140.60301508000001 -535.43864499850599
0.96446195000000 1.68888476000000 141.30653265999999 -535.43757251652096
0.96446195000000 1.68888476000000 142.01005025000001 -535.43649253777801
0.96446195000000 1.68888476000000 142.71356784000000 -535.43540570543405
0.96446195000000 1.68888476000000 143.41708542999999 -535.43431268086999
0.96446195000000 1.68888476000000 144.12060302000000 -535.43321414713603
0.96446195000000 1.68888476000000 144.82412059999999 -535.43211080193100
0.96446195000000 1.68888476000000 145.52763819000000 -535.43100336307100
0.96446195000000 1.68888476000000 146.23115577999999 -535.42989256911005
0.96446195000000 1.68888476000000 146.93467337000001 -535.42877917665999
0.96446195000000 1.68888476000000 147.63819094999999 -535.42766396693503
0.96446195000000 1.68888476000000 148.34170854000001 -535.42654774001301
0.96446195000000 1.68888476000000 149.04522613000000 -535.42543132036405
0.96446195000000 1.68888476000000 149.74874371999999 -535.42431555441203
0.96446195000000 1.68888476000000 150.45226131000001 -535.42320131435599
0.96446195000000 1.68888476000000 151.15577888999999 -535.42208949422798
0.96446195000000 1.68888476000000 151.85929648000001 -535.42098101529996
0.96446195000000 1.68888476000000 152.56281407000000 -535.41987682466004
0.96446195000000 1.68888476000000 153.26633165999999 -535.41877789246303
0.96446195000000 1.68888476000000 156.78391959999999 -535.41339804336803
0.96446195000000 1.68888476000000 157.48743719000001 -535.41235259810196
0.96446195000000 1.68888476000000 158.19095476999999 -535.41131997589116
0.96446195000000 1.68888476000000 158.89447236000001 -535.41030136529196
0.96446195000000 1.68888476000000 159.59798995000000 -535.40929798260004
0.96446195000000 1.68888476000000 160.30150753999999 -535.40831106388316
0.96446195000000 1.68888476000000 161.00502513000001 -535.40734187359101
0.96446195000000 1.68888476000000 161.70854270999999 -535.40639169628298
0.96446195000000 1.68888476000000 162.41206030000001 -535.40546183673916
0.96446195000000 1.68888476000000 163.11557789000000 -535.40455362135799
0.96446195000000 1.68888476000000 163.81909547999999 -535.40366838652403
0.96446195000000 1.68888476000000 164.52261307000001 -535.40280748147597
0.96446195000000 1.68888476000000 165.22613064999999 -535.40197227131398
0.96446195000000 1.68888476000000 165.92964824000001 -535.40116411896497
0.96446195000000 1.68888476000000 166.63316583000000 -535.40038439234399
0.96446195000000 1.68888476000000 167.33668342000001 -535.39963445489605
0.96446195000000 1.68888476000000 168.04020101000000 -535.39891565913899
0.96446195000000 1.68888476000000 168.74371858999999 -535.39822934487097
0.96446195000000 1.68888476000000 169.44723618000000 -535.39757683062999
0.96446195000000 1.68888476000000 170.15075376999999 -535.39695940563297
0.96446195000000 1.68888476000000 171.55778893999999 -535.39583481140505
0.96446195000000 1.68888476000000 172.26130653000001 -535.39533002139297
0.96446195000000 1.68888476000000 172.96482412000000 -535.39486506739502
0.96446195000000 1.68888476000000 173.66834170999999 -535.39444099694799
0.96446195000000 1.68888476000000 174.37185930000001 -535.39405878094396
0.96446195000000 1.68888476000000 175.07537687999999 -535.39371931506196
0.96446195000000 1.68888476000000 175.77889447000001 -535.39342340718599
0.96446195000000 1.68888476000000 176.48241206000000 -535.39317177168891
0.96446195000000 1.68888476000000 177.18592964999999 -535.39296502817001
0.96446195000000 1.68888476000000 177.88944724000001 -535.39280368799291
0.96446195000000 1.68888476000000 178.59296481999999 -535.39268815194600
0.96446195000000 1.68888476000000 179.29648241000001 -535.39261871329995
end