structural
morse    2
rOHe    0   0   0    1          0.96446195
rOCle   0   0   0    1          1.68888476
alphae  0   0   0    1          103.000000
am1     0   0   0    1          1.00000000
am2     0   0   0    1          1.00000000
end

linear
f    0   0   2    1     0.0000000
f    0   0   3    1     0.0000000
f    0   0   4    1     0.0000000
f    0   0   5    1     0.0000000
f    0   0   6    1     0.0000000
f    0   0   7    1     0.0000000
f    0   0   8    1     0.0000000
f    0   2   0    1     0.0000000
f    0   3   0    1     0.0000000
f    0   4   0    1     0.0000000
f    0   5   0    1     0.0000000
f    0   6   0    1     0.0000000
f    0   7   0    1     0.0000000
f    0   8   0    1     0.0000000
f    2   0   0    1     0.0000000
f    3   0   0    1     0.0000000
f    4   0   0    1     0.0000000
f    5   0   0    1     0.0000000
f    6   0   0    1     0.0000000
f    7   0   0    1     0.0000000
f    8   0   0    1     0.0000000
f    0   1   1    1     0.0000000
f    0   1   2    1     0.0000000
f    0   1   3    1     0.0000000
f    0   1   4    1     0.0000000
f    0   1   5    1     0.0000000
f    0   1   6    1     0.0000000
f    0   1   7    1     0.0000000
f    0   2   1    1     0.0000000
f    0   2   2    1     0.0000000
f    0   2   3    1     0.0000000
f    0   2   4    1     0.0000000
f    0   2   5    1     0.0000000
f    0   2   6    1     0.0000000
f    0   3   1    1     0.0000000
f    0   3   2    1     0.0000000
f    0   3   3    1     0.0000000
f    0   3   4    1     0.0000000
f    0   3   5    1     0.0000000
f    0   4   1    1     0.0000000
f    0   4   2    1     0.0000000
f    0   4   3    1     0.0000000
f    0   4   4    1     0.0000000
f    0   5   1    1     0.0000000
f    0   5   2    1     0.0000000
f    0   5   3    1     0.0000000
f    0   6   1    1     0.0000000
f    0   6   2    1     0.0000000
f    0   7   1    1     0.0000000
f    1   0   1    1     0.0000000
f    1   0   2    1     0.0000000
f    1   0   3    1     0.0000000
f    1   0   4    1     0.0000000
f    1   0   5    1     0.0000000
f    1   0   6    1     0.0000000
f    1   0   7    1     0.0000000
f    1   1   0    1     0.0000000
f    1   2   0    1     0.0000000
f    1   3   0    1     0.0000000
f    1   4   0    1     0.0000000
f    1   5   0    1     0.0000000
f    1   6   0    1     0.0000000
f    1   7   0    1     0.0000000
f    2   0   1    1     0.0000000
f    2   0   2    1     0.0000000
f    2   0   3    1     0.0000000
f    2   0   4    1     0.0000000
f    2   0   5    1     0.0000000
f    2   0   6    1     0.0000000
f    2   1   0    1     0.0000000
f    2   2   0    1     0.0000000
f    2   3   0    1     0.0000000
f    2   4   0    1     0.0000000
f    2   5   0    1     0.0000000
f    2   6   0    1     0.0000000
f    3   0   1    1     0.0000000
f    3   0   2    1     0.0000000
f    3   0   3    1     0.0000000
f    3   0   4    1     0.0000000
f    3   0   5    1     0.0000000
f    3   1   0    1     0.0000000
f    3   2   0    1     0.0000000
f    3   3   0    1     0.0000000
f    3   4   0    1     0.0000000
f    3   5   0    1     0.0000000
f    4   0   1    1     0.0000000
f    4   0   2    1     0.0000000
f    4   0   3    1     0.0000000
f    4   0   4    1     0.0000000
f    4   1   0    1     0.0000000
f    4   2   0    1     0.0000000
f    4   3   0    1     0.0000000
f    4   4   0    1     0.0000000
f    5   0   1    1     0.0000000
f    5   0   2    1     0.0000000
f    5   0   3    1     0.0000000
f    5   1   0    1     0.0000000
f    5   2   0    1     0.0000000
f    5   3   0    1     0.0000000
f    6   0   1    1     0.0000000
f    6   0   2    1     0.0000000
f    6   1   0    1     0.0000000
f    6   2   0    1     0.0000000
f    7   0   1    1     0.0000000
f    7   1   0    1     0.0000000
f    1   1   1    1     0.0000000
f    1   1   2    1     0.0000000
f    1   1   3    1     0.0000000
f    1   1   4    1     0.0000000
f    1   1   5    1     0.0000000
f    1   1   6    1     0.0000000
f    1   2   1    1     0.0000000
f    1   2   2    1     0.0000000
f    1   2   3    1     0.0000000
f    1   2   4    1     0.0000000
f    1   2   5    1     0.0000000
f    1   3   1    1     0.0000000
f    1   3   2    1     0.0000000
f    1   3   3    1     0.0000000
f    1   3   4    1     0.0000000
f    1   4   1    1     0.0000000
f    1   4   2    1     0.0000000
f    1   4   3    1     0.0000000
f    1   5   1    1     0.0000000
f    1   5   2    1     0.0000000
f    1   6   1    1     0.0000000
f    2   1   1    1     0.0000000
f    2   1   2    1     0.0000000
f    2   1   3    1     0.0000000
f    2   1   4    1     0.0000000
f    2   1   5    1     0.0000000
f    2   2   1    1     0.0000000
f    2   2   2    1     0.0000000
f    2   2   3    1     0.0000000
f    2   2   4    1     0.0000000
f    2   3   1    1     0.0000000
f    2   3   2    1     0.0000000
f    2   3   3    1     0.0000000
f    2   4   1    1     0.0000000
f    2   4   2    1     0.0000000
f    2   5   1    1     0.0000000
f    3   1   1    1     0.0000000
f    3   1   2    1     0.0000000
f    3   1   3    1     0.0000000
f    3   1   4    1     0.0000000
f    3   2   1    1     0.0000000
f    3   2   2    1     0.0000000
f    3   2   3    1     0.0000000
f    3   3   1    1     0.0000000
f    3   3   2    1     0.0000000
f    3   4   1    1     0.0000000
f    4   1   1    1     0.0000000
f    4   1   2    1     0.0000000
f    4   1   3    1     0.0000000
f    4   2   1    1     0.0000000
f    4   2   2    1     0.0000000
f    4   3   1    1     0.0000000
f    5   1   1    1     0.0000000
f    5   1   2    1     0.0000000
f    5   2   1    1     0.0000000
f    6   1   1    1     0.0000000
end

grid
0.96446195000000 1.68888476000000 103.00000000000000 -535.47204147150296
0.95946195000000 1.68888476000000 103.00000000000000 -535.47201837555497
0.99446195000000 1.68888476000000 103.00000000000000 -535.47126463145901
0.92946195000000 1.68888476000000 103.00000000000000 -535.47081426000204
0.99946195000000 1.68888476000000 103.00000000000000 -535.47099639443297
0.92446195000000 1.68888476000000 103.00000000000000 -535.47041883703400
1.00446195000000 1.68888476000000 103.00000000000000 -535.47069218907200
0.91946195000000 1.68888476000000 103.00000000000000 -535.46996251688302
1.00946195000000 1.68888476000000 103.00000000000000 -535.47035330461995
0.91446195000000 1.68888476000000 103.00000000000000 -535.46944318887495
1.01446195000000 1.68888476000000 103.00000000000000 -535.46998098514405
0.90946195000000 1.68888476000000 103.00000000000000 -535.46885867359197
1.01946195000000 1.68888476000000 103.00000000000000 -535.46957644510496
0.90446195000000 1.68888476000000 103.00000000000000 -535.46820671868295
1.02446195000000 1.68888476000000 103.00000000000000 -535.46914085718004
0.89946195000000 1.68888476000000 103.00000000000000 -535.46748500085516
1.02946195000000 1.68888476000000 103.00000000000000 -535.46867536087404
0.89446195000000 1.68888476000000 103.00000000000000 -535.46669112216296
1.03446195000000 1.68888476000000 103.00000000000000 -535.46818105892498
0.88946195000000 1.68888476000000 103.00000000000000 -535.46582261100298
1.03946195000000 1.68888476000000 103.00000000000000 -535.46765902324296
0.88446195000000 1.68888476000000 103.00000000000000 -535.46487690764491
1.04446195000000 1.68888476000000 103.00000000000000 -535.46711029482299
0.87946195000000 1.68888476000000 103.00000000000000 -535.46385137633797
1.04946195000000 1.68888476000000 103.00000000000000 -535.46653588086303
1.05446195000000 1.68888476000000 103.00000000000000 -535.46593675993802
0.86946195000000 1.68888476000000 103.00000000000000 -535.46154984488999
1.05946195000000 1.68888476000000 103.00000000000000 -535.46531388091103
1.06446195000000 1.68888476000000 103.00000000000000 -535.46466816555198
0.85446195000000 1.68888476000000 103.00000000000000 -535.45742779214402
1.07446195000000 1.68888476000000 103.00000000000000 -535.46331177004197
1.08446195000000 1.68888476000000 103.00000000000000 -535.46187440834797
0.83946195000000 1.68888476000000 103.00000000000000 -535.45242700895517
1.11446195000000 1.68888476000000 103.00000000000000 -535.45713902995897
0.81446195000000 1.68888476000000 103.00000000000000 -535.44188371316602
0.76446195000000 1.68888476000000 103.00000000000000 -535.41065407798101
1.26446195000000 1.68888476000000 103.00000000000000 -535.42798209319903
1.36446195000000 1.68888476000000 103.00000000000000 -535.40716262466105
1.46446195000000 1.68888476000000 103.00000000000000 -535.38739253305903
1.66446195000000 1.68888476000000 103.00000000000000 -535.35427936989504
0.96446195000000 1.68388476000000 103.00000000000000 -535.47203019364395
0.96446195000000 1.69388476000000 103.00000000000000 -535.47203029673403
0.96446195000000 1.67888476000000 103.00000000000000 -535.47199582822896
0.96446195000000 1.67388476000000 103.00000000000000 -535.47193773033200
0.96446195000000 1.70388476000000 103.00000000000000 -535.47194305896699
0.96446195000000 1.66888476000000 103.00000000000000 -535.47185523285293
0.96446195000000 1.66388476000000 103.00000000000000 -535.47174766184003
0.96446195000000 1.71388476000000 103.00000000000000 -535.47177328092891
0.96446195000000 1.65888476000000 103.00000000000000 -535.47161432170196
0.96446195000000 1.65388476000000 103.00000000000000 -535.47145450771200
0.96446195000000 1.63888476000000 103.00000000000000 -535.47080888192704
0.96446195000000 1.73888476000000 103.00000000000000 -535.47101740909500
0.96446195000000 1.63388476000000 103.00000000000000 -535.47053575652899
0.96446195000000 1.74388476000000 103.00000000000000 -535.47081370305398
0.96446195000000 1.62888476000000 103.00000000000000 -535.47023236551502
0.96446195000000 1.74888476000000 103.00000000000000 -535.47059367370491
0.96446195000000 1.62388476000000 103.00000000000000 -535.46989790185398
0.96446195000000 1.75388476000000 103.00000000000000 -535.47035781255101
0.96446195000000 1.61888476000000 103.00000000000000 -535.46953153500397
0.96446195000000 1.75888476000000 103.00000000000000 -535.47010659379600
0.96446195000000 1.61388476000000 103.00000000000000 -535.46913241954803
0.96446195000000 1.76388476000000 103.00000000000000 -535.46984048984405
0.96446195000000 1.60888476000000 103.00000000000000 -535.46869968666795
0.96446195000000 1.76888476000000 103.00000000000000 -535.46955995434598
0.96446195000000 1.60388476000000 103.00000000000000 -535.46823245173698
0.96446195000000 1.77388476000000 103.00000000000000 -535.46926543418101
0.96446195000000 1.59888476000000 103.00000000000000 -535.46772980936805
0.96446195000000 1.59388476000000 103.00000000000000 -535.46719082783204
0.96446195000000 1.58888476000000 103.00000000000000 -535.46661456181096
0.96446195000000 1.57888476000000 103.00000000000000 -535.46534626547293
0.96446195000000 1.79888476000000 103.00000000000000 -535.46759809991204
0.96446195000000 1.56888476000000 103.00000000000000 -535.46391687853099
0.96446195000000 1.80888476000000 103.00000000000000 -535.46684791935900
0.96446195000000 1.81388476000000 103.00000000000000 -535.46645654774704
0.96446195000000 1.56388476000000 103.00000000000000 -535.46313915925498
0.96446195000000 1.83888476000000 103.00000000000000 -535.46435141113398
0.96446195000000 1.53888476000000 103.00000000000000 -535.45857600622901
0.96446195000000 1.48888476000000 103.00000000000000 -535.44558343526000
0.96446195000000 1.38888476000000 103.00000000000000 -535.39875632603605
0.96446195000000 1.28888476000000 103.00000000000000 -535.30968929171797
0.96446195000000 1.68888476000000 102.00000000000000 -535.47201210054493
0.96446195000000 1.68888476000000 105.00000000000000 -535.47192476077498
0.96446195000000 1.68888476000000 101.00000000000000 -535.47192316323401
0.96446195000000 1.68888476000000 100.50000000000000 -535.47185610598092
0.96446195000000 1.68888476000000 100.00000000000000 -535.47177385712496
0.96446195000000 1.68888476000000 107.00000000000000 -535.47157960577294
0.96446195000000 1.68888476000000  98.00000000000000 -535.47129096750302
0.96446195000000 1.68888476000000  98.00000000000000 -535.47129096750302
0.96446195000000 1.68888476000000 110.50000000000000 -535.47044611071692
0.96446195000000 1.68888476000000  95.50000000000000 -535.47033378202195
0.96446195000000 1.68888476000000  93.00000000000000 -535.46897255270596
0.96446195000000 1.68888476000000 120.50000000000000 -535.46380202347291
0.96446195000000 1.68888476000000  85.50000000000000 -535.46234788866798
0.96446195000000 1.68888476000000 123.00000000000000 -535.46143064854402
0.96446195000000 1.68888476000000  83.00000000000000 -535.45925414011401
0.96446195000000 1.68888476000000 125.50000000000000 -535.45880662707896
0.96446195000000 1.68888476000000  80.50000000000000 -535.45569781117399
0.96446195000000 1.68888476000000 128.00000000000000 -535.45594711728302
0.96446195000000 1.68888476000000  78.00000000000000 -535.45166584062395
0.96446195000000 1.68888476000000 133.00000000000000 -535.44959567033800
0.96446195000000 1.68888476000000  73.00000000000000 -535.44211271156200
0.96446195000000 1.68888476000000 138.00000000000000 -535.44253776369601
0.96446195000000 1.68888476000000  68.00000000000000 -535.43043034495997
0.96446195000000 1.68888476000000 143.00000000000000 -535.43496139689205
0.96446195000000 1.68888476000000  63.00000000000000 -535.41633966770303
0.96446195000000 1.68888476000000 148.00000000000000 -535.42708998227295
0.96446195000000 1.68888476000000  58.00000000000000 -535.39933601431517
0.96446195000000 1.68888476000000 153.00000000000000 -535.41919323522995
0.96446195000000 1.68888476000000 163.00000000000000 -535.40470128620802
0.96446195000000 1.68888476000000  43.00000000000000 -535.31835095647398
0.96446195000000 1.68888476000000 173.00000000000000 -535.39484288529002
0.96446195000000 1.68888476000000 180.00000000000000 -535.39259554684497
1.16230627000000 1.75150156000000 103.00000000000000 -535.44725563916097
0.89590574000000 1.83858284000000 103.00000000000000 -535.45889765612799
0.96446195000000 1.92387026000000 129.27339301000001 -535.43426902118199
0.90154427000000 1.81542520000000 103.00000000000000 -535.46180345827202
1.34371700000000 1.65501426000000 103.00000000000000 -535.41085407908304
0.93413177000000 1.68888476000000  95.79554147000000 -535.46950699565298
1.04944394000000 1.56331514000000 103.00000000000000 -535.45735087260891
0.96446195000000 1.81375024000000 109.08229544000000 -535.46435184126801
1.16090462000000 1.68888476000000  74.89871955000000 -535.42638877522404
0.75596095000000 1.68888476000000 104.86471890999999 -535.40369148735897
0.87029844000000 1.51309446000000 103.00000000000000 -535.44274627155801
0.84934524000000 2.04532522000000 103.00000000000000 -535.42418165956406
0.95028017000000 1.68888476000000 110.45128012000001 -535.47028931426200
0.89985783000000 1.71434045000000 103.00000000000000 -535.46720959338302
1.10887792000000 1.88772027000000 103.00000000000000 -535.44640936699102
0.87068148000000 1.68888476000000  68.47436053000000 -535.41900220725699
1.01419001000000 1.68888476000000 127.52899197000001 -535.45435271427004
0.96105346000000 1.69171888000000 103.00000000000000 -535.47202692062683
1.21546648000000 1.58725847000000 103.00000000000000 -535.43228671240797
0.89712833000000 1.73160081000000 103.00000000000000 -535.46626454567502
1.14018532000000 1.68888476000000 117.38406251000001 -535.44689712083903
0.96446195000000 1.49306374000000 107.19265715000000 -535.44842947357995
0.96446195000000 1.63810273000000 127.41119356000000 -535.45717884553801
1.24206753000000 1.68888476000000  97.84864592000000 -535.43198881396097
0.96446195000000 1.75143658000000  90.97520461000001 -535.46767206423692
1.25333876000000 1.69060467000000 103.00000000000000 -535.43030398318695
0.96446195000000 1.59407480000000 104.25655079000001 -535.46743267651402
0.96446195000000 1.87532437000000  81.22337779000000 -535.45474016318803
0.91960947000000 1.40021095000000 103.00000000000000 -535.40388677461306
1.04462798000000 1.68888476000000  76.06147023000000 -535.44457873195404
0.99137116000000 1.87475582000000 103.00000000000000 -535.46048937558101
1.40149156000000 1.68888476000000 118.73187847000000 -535.39374426648999
1.30378478000000 1.68888476000000 123.66263475000000 -535.40895783025098
0.96446195000000 1.76842914000000  78.88455279999999 -535.45583494905395
0.98715142000000 1.68888476000000 133.73877092000001 -535.44806134806890
0.96446195000000 1.90175558000000 107.76807920000000 -535.45632255621695
0.95927528000000 1.68888476000000 104.23313401999999 -535.47197303342500
0.98017984000000 1.68888476000000  91.80600056999999 -535.46800260515602
1.31360365000000 1.68748834000000 103.00000000000000 -535.41769880770892
0.96446195000000 1.96044984000000 118.46760025000000 -535.44200729022316
1.05510547000000 1.60900127000000 103.00000000000000 -535.46237459685096
0.99373301000000 1.68888476000000  91.74533809000000 -535.46748015391404
0.96446195000000 1.74487273000000  66.10745448999999 -535.43112770687003
0.85908112000000 1.68888476000000  84.91264730000000 -535.44773900398002
0.89243821000000 1.43906689000000 103.00000000000000 -535.42096696546696
0.96446195000000 1.91921784000000  75.92479295000000 -535.44680754446699
1.29168253000000 1.64034640000000 103.00000000000000 -535.42103998634695
0.93925365000000 1.68888476000000  89.64178613000000 -535.46576609298302
1.01828762000000 1.68888476000000  80.65574509000000 -535.45413296400295
1.04526772000000 1.68888476000000  86.48615373000000 -535.45887532149504
0.98624567000000 1.56598865000000 103.00000000000000 -535.46299248901516
1.08296168000000 1.68888476000000  71.43276272999999 -535.43178881728204
1.07060218000000 1.64203701000000 103.00000000000000 -535.46266091904295
0.77040458000000 1.68888476000000 110.83738708999999 -535.41367951586096
0.82234158000000 1.96036056000000 103.00000000000000 -535.42376098130205
0.95133151000000 1.68888476000000 100.76483933000000 -535.47172458121292
0.96446195000000 1.56415881000000 135.72437022000000 -535.44328534223700
0.97358087000000 1.79057027000000 103.00000000000000 -535.46814084380003
0.98655498000000 1.87526678000000 103.00000000000000 -535.46061216684200
0.94312786000000 1.68888476000000  60.21479400000000 -535.40570892933601
1.17051702000000 1.68888476000000 109.61406540000000 -535.44568263608198
0.90708504000000 1.59848820000000 103.00000000000000 -535.46436238656895
0.74324755000000 1.68888476000000 116.63261057000000 -535.38766984388099
0.96446195000000 1.66435704000000 135.42477181000001 -535.44697669721597
0.96446195000000 1.43602255000000 111.09378012000001 -535.42828545743600
1.01708103000000 1.79460633000000 103.00000000000000 -535.46580148410396
0.96446195000000 1.76553577000000 105.61458057000000 -535.46922141106995
0.87629303000000 1.54880567000000 103.00000000000000 -535.45201085366091
1.07181987000000 1.73895990000000 103.00000000000000 -535.46278897342700
0.96446195000000 1.71774280000000 105.73850634000000 -535.47132774383601
0.96446195000000 1.70876003000000  90.57778986000000 -535.46767361841501
0.96446195000000 1.96429512000000  88.76247669000000 -535.45154678243398
1.24615516000000 1.47887231000000 103.00000000000000 -535.40254936493693
1.26168693000000 1.76184093000000 103.00000000000000 -535.42679462379203
0.98565650000000 1.68888476000000  75.28340018000000 -535.44669863836100
1.21764227000000 1.68464960000000 103.00000000000000 -535.43763000477202
0.85802687000000 1.68888476000000  74.81160679000000 -535.43059485497804
1.25910729000000 1.68888476000000 111.83794724000001 -535.42690642582102
0.97616102000000 1.68888476000000  73.17028635000000 -535.44259041790394
0.96446195000000 1.65878540000000  94.30993108000000 -535.46867962249996
1.47244320000000 1.78280543000000 103.00000000000000 -535.38263192051897
1.14389702000000 1.68888476000000 110.99925152000000 -535.45009091765098
0.84978038000000 1.68888476000000  71.46514272000000 -535.42039566073197
0.95155555000000 1.68888476000000  96.16238645999999 -535.47044875105200
1.15500283000000 1.68888476000000  74.22565509000000 -535.42630362707291
0.93436831000000 1.84860888000000 103.00000000000000 -535.46241277902197
0.96446195000000 1.87528577000000 117.01102064000000 -535.45289195588498
0.78741541000000 1.67045084000000 103.00000000000000 -535.42684521618605
1.19750964000000 1.88197009000000 103.00000000000000 -535.43086677619601
1.00243155000000 1.68888476000000  72.06204803999999 -535.43975174425805
0.96446195000000 1.84015446000000  71.33601122000000 -535.44404783636901
0.96446195000000 1.92521704000000 116.05392596000000 -535.44817002713296
0.96446195000000 1.64823108000000  85.79394038000000 -535.45992916289003
1.00834763000000 1.68888476000000 136.79048148000001 -535.44251791719500
1.28613439000000 1.68888476000000 116.43268673999999 -535.41865179079196
0.75445496000000 1.67440659000000 103.00000000000000 -535.40248064057903
0.79490875000000 1.74295811000000 103.00000000000000 -535.42987630722598
1.01217177000000 1.90202547000000 103.00000000000000 -535.45657882530895
0.75139675000000 1.68888476000000 130.10548524000001 -535.38199403506906
0.96446195000000 1.64889995000000 133.96319689000001 -535.44915795856900
0.96446195000000 1.81553778000000  76.27630762000000 -535.45183204965099
0.90327245000000 1.68888476000000  93.21789481000000 -535.46495583650506
0.96446195000000 1.44907326000000 125.70467247000001 -535.42863232799903
0.96446195000000 1.68357694000000 122.40671949999999 -535.46215109875095
0.99914076000000 1.68888476000000 111.03817666000000 -535.46915409549297
0.96446195000000 1.96693406000000 102.20408247000000 -535.45120372729900
0.96446195000000 1.75097014000000 126.69696377000000 -535.45423550761802
0.96446195000000 1.88330147000000  85.71283932999999 -535.45748089806398
0.81092505000000 1.68888476000000 122.49495374999999 -535.43045515671895
0.98072226000000 1.68888476000000 123.00426323000001 -535.46115734848399
1.07126041000000 1.68888476000000  79.04691744000000 -535.44644822792100
0.99163793000000 1.92382115000000 103.00000000000000 -535.45536385446997
0.96446195000000 1.58434724000000 111.17372503999999 -535.46591264850497
0.96979198000000 1.81382988000000 103.00000000000000 -535.46645613028204
1.22036426000000 1.68888476000000 106.94861218000000 -535.43660416826697
1.10210148000000 1.68888476000000 103.83071870000001 -535.45912714213796
0.96446195000000 1.53191823000000  70.71690409999999 -535.40226697406501
1.00005861000000 1.59769114000000 103.00000000000000 -535.46644677677295
0.96446195000000 1.68512231000000 111.00336134000000 -535.47027481269402
1.12294726000000 1.83220819000000 103.00000000000000 -535.44915231016000
1.06897018000000 1.73809517000000 103.00000000000000 -535.46320614639899
0.99308416000000 1.68888476000000  82.04180776000000 -535.45749843658905
1.11363191000000 1.68888476000000  83.18692407000000 -535.44590568662704
1.28804454000000 1.68888476000000  94.87090037999999 -535.42133190431798
0.96446195000000 1.87550132000000  84.44021171999999 -535.45723604837997
1.19656585000000 1.68888476000000 117.45753528000000 -535.43614848383595
0.96446195000000 1.80772559000000  95.45947712000000 -535.46688976318092
0.96446195000000 1.83579881000000  88.82188598000000 -535.46260977197699
0.88301665000000 1.73513150000000 103.00000000000000 -535.46357050208405
1.11018672000000 1.78251754000000 103.00000000000000 -535.45486644741004
1.41160176000000 1.69184291000000 103.00000000000000 -535.39763831642802
0.84541152000000 1.67663767000000 103.00000000000000 -535.45450704662403
0.96446195000000 1.77656005000000  99.54433475000000 -535.46929714685405
1.11616959000000 1.68888476000000  95.45653855000000 -535.45533901684303
1.26560411000000 1.68888476000000 105.84260583000000 -535.42748591534996
0.74068272000000 1.59962306000000 103.00000000000000 -535.38650890645101
1.07119347000000 1.68888476000000 103.84416908000000 -535.46373157669495
0.90832772000000 1.74827032000000 103.00000000000000 -535.46718058475403
0.96446195000000 1.57553055000000 145.13078965000000 -535.43134068905101
0.96446195000000 1.66779931000000  80.09511065000000 -535.45343417249398
0.97655834000000 1.70238104000000 103.00000000000000 -535.47183450305602
1.08467740000000 1.68888476000000 134.40876646000001 -535.43719925368202
0.71200863000000 1.59726291000000 103.00000000000000 -535.35507145617601
0.96446195000000 1.98523692000000  94.98372716999999 -535.45022174078895
0.96446195000000 1.90380906000000 120.82655036000000 -535.44619656333600
1.30085042000000 1.68888476000000 107.34764212000000 -535.41982791757903
0.96446195000000 1.53907888000000 138.97079833999999 -535.43618903464005
0.88346431000000 1.68888476000000 104.93891284999999 -535.46459552360091
0.96446195000000 1.76228692000000 107.78603218000001 -535.46871236963898
0.96446195000000 1.84409723000000 110.10989770000000 -535.46103610098703
0.89698607000000 1.68888476000000  63.23285936000000 -535.40944391250002
1.10642725000000 1.68888476000000  93.96683367000000 -535.45623747338402
1.06508114000000 1.78967098000000 103.00000000000000 -535.46106795408900
0.96446195000000 1.53667837000000 125.85125085999999 -535.45075120354704
0.96446195000000 1.77721965000000 114.45121313999999 -535.46405592911901
0.96446195000000 1.52314447000000  96.22526525000001 -535.45054052724697
1.10876062000000 1.68888476000000  67.62726827000000 -535.42076607473098
0.90104912000000 1.87850592000000 103.00000000000000 -535.45584533115198
0.96446195000000 1.57887797000000  90.91720304000000 -535.45707497630201
1.10962220000000 1.68888476000000  93.26865167000000 -535.45534395981895
1.46885765000000 1.66815306000000 103.00000000000000 -535.38643502508398
1.05355857000000 1.68888476000000 129.65675612000001 -535.44775496732404
1.03620008000000 1.68888476000000  91.40826281000000 -535.46406950308005
0.95025529000000 1.68888476000000 136.63541985000001 -535.44439755189796
1.25857837000000 1.68888476000000 105.59793732000000 -535.42898777606297
1.07581452000000 1.68888476000000 115.16657255000000 -535.45891969801198
0.90653562000000 1.68888476000000  85.23399102000000 -535.45811436950896
0.82424072000000 1.83341889000000 103.00000000000000 -535.43835284221495
0.69264051000000 1.93752806000000 103.00000000000000 -535.31204350369796
1.05468918000000 1.68888476000000  84.56391326000001 -535.45573724630299
0.77910691000000 2.01406734000000 103.00000000000000 -535.39256883325595
0.91527669000000 2.05700789000000 103.00000000000000 -535.43734179671003
1.02632760000000 1.92991572000000 103.00000000000000 -535.45250215137116
0.95033699000000 1.84365509000000 103.00000000000000 -535.46366179437405
1.06759687000000 1.68888476000000 106.89301544999999 -535.46376866001901
0.96446195000000 1.84583643000000 102.35746992000000 -535.46386688498603
0.96446195000000 1.71922132000000 115.51099791000000 -535.46675968690101
1.09417273000000 1.63504518000000 103.00000000000000 -535.45882862404505
1.33814712000000 1.68888476000000  84.69093646000000 -535.40361628016797
0.96446195000000 1.58571683000000  95.95690419000000 -535.46284618378604
0.89451941000000 1.99861005000000 103.00000000000000 -535.44121424480397
1.01858333000000 1.68888476000000 111.70280572999999 -535.46746305175895
1.05213398000000 1.69766461000000 103.00000000000000 -535.46620420190800
0.96446195000000 1.55581521000000 118.05341857000001 -535.45947840220595
0.96446195000000 1.45046350000000 113.82803515000001 -535.43433073192296
0.96446195000000 1.62171354000000  69.84907088999999 -535.42462977068999
0.83971918000000 1.68888476000000 107.93176679000000 -535.45191993234801
0.96446195000000 1.82814406000000  91.90658753000000 -535.46450030131405
1.08631244000000 1.75749660000000 103.00000000000000 -535.45994755899403
0.96446195000000 1.68915089000000  97.67638750000000 -535.47119244253099
0.99285205000000 1.68888476000000 107.88389634000001 -535.47063911695705
0.93302760000000 1.68888476000000 104.19069785000001 -535.47102481833895
0.90941147000000 1.68888476000000  97.08813893000000 -535.46772809082097
0.89673879000000 1.82481889000000 103.00000000000000 -535.46025597381595
1.27557638000000 1.66692373000000 103.00000000000000 -535.42537331887900
0.96446195000000 1.73504416000000 112.30114430000000 -535.46807484866997
0.96446195000000 1.70337148000000  91.83038838000000 -535.46848150990195
1.02310789000000 1.68888476000000  84.27072776000000 -535.45852877208893
0.96446195000000 1.78279902000000  88.85462036000000 -535.46539378536704
1.24115296000000 1.75079548000000 103.00000000000000 -535.43156164222398
0.96446195000000 1.48139639000000 133.06523435000000 -535.43198826213097
0.84387899000000 1.68888476000000  88.58263153999999 -535.44698350367798
1.19086353000000 1.47054190000000 103.00000000000000 -535.41052386630997
1.01998570000000 1.80494165000000 103.00000000000000 -535.46483028924501
0.96446195000000 1.70909926000000  66.48721528000000 -535.42884116447397
0.96446195000000 1.72955201000000  89.30447940000001 -535.46682226672203
0.96446195000000 1.79214483000000  88.95135021999999 -535.46507394048092
1.05025317000000 1.68888476000000 129.71048633000001 -535.44808663073604
0.85428147000000 1.69313713000000 103.00000000000000 -535.45734751459395
1.05183713000000 1.68888476000000 128.55996497999999 -535.44931989996996
1.36959764000000 1.68888476000000 117.16370761000000 -535.40113983996298
1.25323038000000 1.76308860000000 103.00000000000000 -535.42849698050395
1.10623984000000 1.74425893000000 103.00000000000000 -535.45743740009902
0.81212687000000 1.72333609000000 103.00000000000000 -535.44003448208491
1.12812877000000 1.79232834000000 103.00000000000000 -535.45122608710597
0.97262954000000 1.68888476000000  82.51555301000000 -535.45861144251103
1.11443449000000 1.68888476000000 142.55700511000001 -535.42018860671101
0.96446195000000 1.93539607000000 106.37188797000000 -535.45324417220002
0.78082601000000 1.68888476000000  85.21091603000001 -535.41152359540695
0.96446195000000 1.54260551000000 141.85860794000001 -535.43278706808803
1.11604825000000 1.63555700000000 103.00000000000000 -535.45531295521698
1.05583113000000 1.68888476000000 135.40226340999999 -535.43974268653903
0.96446195000000 1.89970342000000 120.45549549000000 -535.44702399383698
0.95716289000000 1.68888476000000 122.10863114999999 -535.46227165965797
0.74665586000000 1.68888476000000  84.43759384000001 -535.38336605910604
0.96446195000000 1.67211211000000 120.49752607000001 -535.46411544231205
0.84037473000000 1.81962997000000 103.00000000000000 -535.44608428189201
0.97929929000000 2.10052189000000 103.00000000000000 -535.43532224129399
0.91454990000000 1.61428226000000 103.00000000000000 -535.46669132384091
1.15747150000000 1.63982932000000 103.00000000000000 -535.44814545382201
1.24502184000000 1.68888476000000 114.65704993999999 -535.42827735436401
0.96446195000000 1.81901346000000 119.74512210000000 -535.45608005392205
0.83557492000000 1.43670057000000 103.00000000000000 -535.40492853540093
0.96446195000000 1.77397734000000 115.62879986000000 -535.46343204810296
0.96446195000000 1.90526423000000  88.55669889000001 -535.45709397684300
1.10668410000000 1.68888476000000  89.56651020000000 -535.45332019856198
1.27074519000000 1.66248212000000 103.00000000000000 -535.42626836940303
0.96446195000000 1.63361534000000 129.76092581000000 -535.45440062191301
0.91901005000000 1.72716987000000 103.00000000000000 -535.46924550258802
1.06976553000000 1.68888476000000  96.10224447000000 -535.46266154105001
0.96446195000000 1.55266882000000 129.84877700999999 -535.44899732458805
0.79209693000000 1.69829825000000 103.00000000000000 -535.42966000885099
0.87327577000000 1.50607963000000 103.00000000000000 -535.44156583187805
0.96446195000000 1.71945240000000  84.99531466000001 -535.46278210732100
0.93338078000000 1.68888476000000  87.01441628000001 -535.46287715034703
0.79534612000000 1.68888476000000 101.09205818000000 -535.43153191464717
1.22584748000000 1.68888476000000 126.67200185999999 -535.42156377803883
0.86391990000000 1.68888476000000  90.43649549000000 -535.45487432989103
0.96446195000000 1.81686916000000 108.26920419000000 -535.46447099083605
0.80272138000000 1.70355790000000 103.00000000000000 -535.43567475558905
0.96446195000000 1.80131760000000 107.81677413000000 -535.46595774153400
1.40370846000000 1.67293627000000 103.00000000000000 -535.39910202060491
1.35337202000000 1.68888476000000  85.61275374000000 -535.40132732987502
0.96446195000000 1.75948066000000  79.78242676000001 -535.45700156959083
0.78679170000000 1.98862165000000 103.00000000000000 -535.40086207139916
1.00599790000000 2.08943051000000 103.00000000000000 -535.43563833135693
0.96446195000000 1.68853397000000 107.72342388000000 -535.47140274081517
0.96446195000000 1.47931079000000 124.75004602000000 -535.43913620659305
1.23246644000000 1.73416338000000 103.00000000000000 -535.43396213106303
0.80654463000000 1.68888476000000  98.45750980000000 -535.43714203729098
1.22501083000000 1.68888476000000 106.70943180000000 -535.43570977146703
1.12579858000000 1.68888476000000 130.17016458000001 -535.43627680741804
0.96446195000000 1.98760759000000 105.35375874000000 -535.44766121583098
0.80697444000000 1.68888476000000  76.56761849999999 -535.41328863190301
1.17799649000000 1.67324051000000 103.00000000000000 -535.44538999829297
0.90363489000000 1.68888476000000  92.80149991000000 -535.46473762450603
0.96446195000000 1.70405028000000 129.14285103000000 -535.45397451507097
1.11224783000000 1.68888476000000  68.84117008000000 -535.42286495753103
0.79781698000000 1.68888476000000  77.40910626000000 -535.40985241908800
1.02774095000000 1.68888476000000 126.28405735000000 -535.45460754673195
0.96446195000000 1.92605300000000  76.34206801000001 -535.44679432213502
0.96446195000000 1.79339116000000  68.77387499000000 -535.43933609029500
1.06630963000000 1.99329679000000 103.00000000000000 -535.44111525858204
1.35031298000000 1.66463315000000 103.00000000000000 -535.40976994549601
0.93113910000000 1.65264600000000 103.00000000000000 -535.47034067109803
1.18161620000000 1.66135740000000 103.00000000000000 -535.44440191957096
0.84367807000000 1.68888476000000  69.37104248000000 -535.41295621834297
0.82089829000000 1.90845701000000 103.00000000000000 -535.42910733103201
0.89361370000000 1.68888476000000  92.94090421999999 -535.46326069165400
1.14318105000000 1.68888476000000  66.60256020999999 -535.41404328742794
1.18328573000000 1.72295801000000 103.00000000000000 -535.44417343545604
0.96446195000000 1.80212410000000 123.59488253000001 -535.45367397952703
0.79046451000000 1.68888476000000  98.63544003000000 -535.42804945807404
1.08799723000000 1.68888476000000 104.73086106000000 -535.46123518195998
0.96446195000000 1.69102895000000 100.37362833000000 -535.47184626186697
0.96446195000000 1.59005736000000  85.96649422000000 -535.45254723191499
0.96446195000000 1.96618249000000  96.91808329000000 -535.45226078613700
0.96446195000000 1.81431134000000 121.51362238999999 -535.45476879865305
1.23991653000000 1.45152596000000 103.00000000000000 -535.39370105497517
1.12574705000000 1.95719618000000 103.00000000000000 -535.43631545570895
0.96446195000000 1.84566596000000 113.72842244000000 -535.45855713887602
1.09493162000000 1.69838729000000 103.00000000000000 -535.46027825052499
1.14671276000000 1.68888476000000  73.50384249000000 -535.42647132415300
1.16583222000000 1.68888476000000 103.90268790000000 -535.44785863530899
1.13185607000000 1.68888476000000  81.29015801000000 -535.44057634829903
0.84390889000000 1.80701218000000 103.00000000000000 -535.44840851112497
0.96446195000000 1.72323207000000  74.54744024000000 -535.44775476193695
1.03500792000000 1.68888476000000 113.67371009999999 -535.46487285947796
0.96446195000000 1.88474423000000 111.03672672000000 -535.45633053264703
0.85455870000000 1.68888476000000 102.35065939000000 -535.45743168393199
0.96446195000000 1.59484513000000  82.67351841999999 -535.44810573264283
1.28264774000000 1.53756959000000 103.00000000000000 -535.41064531449899
0.94538759000000 1.68888476000000  69.20168653000000 -535.43256394660602
1.31840478000000 1.52328336000000 103.00000000000000 -535.40034796140696
1.05213757000000 1.68888476000000 135.14712109000001 -535.44056190647098
1.22042088000000 1.65013977000000 103.00000000000000 -535.43624425726716
0.96446195000000 1.83741225000000 111.80173763000001 -535.46066654468098
1.31438715000000 1.53085109000000 103.00000000000000 -535.40281291102099
1.03703048000000 1.68888476000000  75.51378509000000 -535.44430551177800
0.83693024000000 1.68888476000000 111.82067653000000 -535.44946467879402
0.96446195000000 1.70909283000000 114.73353984000001 -535.46767891560091
1.19496072000000 1.68888476000000  86.23874728000000 -535.43449408749700
0.77920873000000 1.71407888000000 103.00000000000000 -535.42099880374406
0.96446195000000 2.05018291000000  90.61304355999999 -535.44276073308890
0.96446195000000 1.83161783000000 119.69149401999999 -535.45492591048003
0.96446195000000 1.53386676000000 114.12744839000000 -535.45771980349116
0.96446195000000 1.58372458000000 127.23482552999999 -535.45493088701005
0.94423529000000 1.68888476000000  90.23392549000000 -535.46651162916203
0.84199212000000 1.68888476000000  82.96088741000000 -535.43957895152505
1.23718921000000 1.68888476000000 100.93853401000000 -535.43356371709501
0.83637350000000 1.89492156000000 103.00000000000000 -535.43714424466600
0.67427139000000 1.76969838000000 103.00000000000000 -535.30060989925698
1.01288721000000 1.68888476000000  63.17342845000000 -535.41726159237396
0.92639136000000 1.68888476000000  86.63080386999999 -535.46192358854796
0.96446195000000 1.55131726000000  94.32493950999999 -535.45537590874096
0.96446195000000 1.69905492000000 137.23284891000000 -535.44321184906096
1.08758838000000 1.62015116000000 103.00000000000000 -535.45883080478905
0.96446195000000 1.53508306000000 132.09761087999999 -535.44407460961691
0.96446195000000 1.82905814000000  87.00174516000000 -535.46195546070896
0.96552386000000 1.81418031000000 103.00000000000000 -535.46643629924199
0.96446195000000 1.55310318000000 121.76841684000000 -535.45659699389000
0.93482421000000 1.76334593000000 103.00000000000000 -535.46892720481117
0.96446195000000 1.66900781000000  72.88098631000000 -535.43969736108795
0.96446195000000 1.52604205000000 101.42446825000000 -535.45502494457799
1.23775051000000 1.54325402000000 103.00000000000000 -535.42091672079300
0.96446195000000 1.84116974000000  84.69665540000000 -535.45963840500895
0.96446195000000 1.84128745000000 114.54467133000000 -535.45838770794091
1.29322280000000 1.68888476000000 111.20261015000000 -535.42011685861996
0.97961951000000 1.84065488000000 103.00000000000000 -535.46406108104804
1.19061695000000 1.68888476000000 105.57035833000000 -535.44285057440891
1.10718892000000 1.68888476000000  84.44207053000000 -535.44836711322898
1.43532186000000 1.68888476000000 117.33276531000000 -535.38825308315995
1.10318967000000 1.62440555000000 103.00000000000000 -535.45671292298505
0.96446195000000 1.82329105000000  91.68290257000000 -535.46473882580403
1.22463627000000 1.68888476000000  96.14989531000001 -535.43503781402399
0.96446195000000 1.67137754000000 102.46500521000000 -535.47187194038202
0.93579461000000 1.73800135000000 103.00000000000000 -535.47019427510804
0.96446195000000 1.65593531000000 124.66669764000000 -535.46023325734302
0.87526068000000 1.91759560000000 103.00000000000000 -535.44664311668498
0.99059429000000 1.68888476000000  84.31198879000000 -535.46052859073495
1.12311785000000 1.69916042000000 103.00000000000000 -535.45565816756096
0.96446195000000 1.80978098000000  83.17398869000000 -535.45987828516002
1.11364398000000 1.91281494000000 103.00000000000000 -535.44308915744205
1.01480848000000 1.68888476000000 139.70066466000000 -535.43768648981290
1.07400071000000 1.91590042000000 103.00000000000000 -535.44868362337195
0.97836319000000 1.68888476000000  81.73234927999999 -535.45746648023692
0.96446195000000 1.81460882000000 123.80771860999999 -535.45229469898197
0.85859636000000 1.73950169000000 103.00000000000000 -535.45739839800399
0.96446195000000 1.82128550000000 120.52165581000000 -535.45511153616906
1.15804522000000 1.68888476000000 130.59806277999999 -535.42995543474092
1.09971838000000 1.68888476000000 106.84932748999999 -535.45905921124597
0.81395861000000 1.49251145000000 103.00000000000000 -535.41722989963398
1.12818834000000 1.68888476000000 110.34425204999999 -535.45317487364105
1.14694018000000 1.68888476000000 117.63321704000001 -535.44548376534203
1.03493339000000 2.17699541000000 103.00000000000000 -535.42370792751296
1.09803529000000 1.68888476000000  79.86590793000001 -535.44399447668297
1.41370752000000 1.68888476000000 101.91999210000000 -535.39717819011605
0.83550419000000 1.68888476000000 105.78786158000000 -535.45078408117604
1.22073069000000 1.68888476000000 113.85529393000000 -535.43371238800796
0.96124704000000 1.86812440000000 103.00000000000000 -535.46158980829205
0.96446195000000 1.44375189000000  89.43526196000001 -535.41141828862317
0.96446195000000 1.59322078000000  85.51935980000000 -535.45242569150400
0.96446195000000 1.67760620000000 116.44500617999999 -535.46725231623100
1.15900629000000 1.68888476000000 112.03482246000000 -535.44680815264803
0.95457881000000 1.94537734000000 103.00000000000000 -535.45323785861501
0.96446195000000 1.74102432000000 120.40597993999999 -535.46159518690899
1.25635136000000 1.62580069000000 103.00000000000000 -535.42752528545998
0.86539253000000 1.80459724000000 103.00000000000000 -535.45521819822602
0.91380283000000 1.50440340000000 103.00000000000000 -535.44777236333596
1.24198709000000 1.61086543000000 103.00000000000000 -535.42933074198595
1.13695796000000 1.68888476000000 117.70661611000000 -535.44722792279401
0.96446195000000 1.64362173000000  83.87836578000000 -535.45689007468900
1.07526710000000 1.68888476000000 138.74848410000001 -535.43221561230098
1.13470737000000 1.68888476000000  95.57027194000000 -535.45219265810101
1.32209806000000 1.66793391000000 103.00000000000000 -535.41568466261697
0.89687567000000 1.69043297000000 103.00000000000000 -535.46707882327598
0.95480681000000 1.68888476000000 135.64658416000000 -535.44589066556500
1.12412423000000 1.68888476000000 100.30862614999999 -535.45534052750997
1.21675198000000 1.66688342000000 103.00000000000000 -535.43753449905103
0.96446195000000 1.79506507000000 111.67594669000000 -535.46448744325198
1.00109608000000 1.82515415000000 103.00000000000000 -535.46454936628697
0.81812247000000 1.68888476000000  78.27755864000000 -535.42211336187597
1.16215569000000 1.88220093000000 103.00000000000000 -535.43765126667802
0.96446195000000 1.62043024000000 120.40257054999999 -535.46347838205895
0.92039554000000 1.41930894000000 103.00000000000000 -535.41473597704805
0.96446195000000 1.68574450000000 104.37583481000000 -535.47198994404198
0.96446195000000 1.74517606000000  80.48690028999999 -535.45780080196096
0.96446195000000 1.56063088000000  76.89319356000000 -535.42854066203495
0.96446195000000 1.80020396000000 117.30565867000000 -535.45997734359298
0.75010381000000 1.68888476000000 104.92037381000000 -535.39860296499205
0.96446195000000 1.69267806000000  84.97073003000000 -535.46190710301596
0.90211790000000 2.00816303000000 103.00000000000000 -535.44134046993292
0.93683790000000 1.56983116000000 103.00000000000000 -535.46339655472002
0.96446195000000 1.70734730000000 127.61326337000000 -535.45568569550096
0.96446195000000 1.55195111000000 106.13111877000000 -535.46181563646701
1.09048478000000 1.68888476000000  75.55240003000000 -535.43837525828405
0.90651856000000 1.52554842000000 103.00000000000000 -535.45233309146499
0.95131379000000 1.59610653000000 103.00000000000000 -535.46730426376803
0.96446195000000 1.76600175000000  90.75933577000001 -535.46714451195999
0.97354681000000 1.68888476000000 112.74850528000000 -535.46929102620300
1.02175520000000 1.75372302000000 103.00000000000000 -535.46781150454296
0.96446195000000 1.76883576000000 103.94411146000000 -535.46940912786101
0.83299217000000 1.71436778000000 103.00000000000000 -535.44956778789503
0.96446195000000 1.61633018000000  86.74757175000001 -535.45763577751904
0.96446195000000 1.68904528000000 127.07581840000000 -535.45702540240495
0.86830020000000 2.09453381000000 103.00000000000000 -535.42401319040698
1.01052957000000 1.66573117000000 103.00000000000000 -535.46999681795296
0.97320610000000 1.68888476000000 112.79606183999999 -535.46927142981599
1.05304622000000 1.68888476000000 116.18097935999999 -535.46122655445902
1.04893605000000 1.63337531000000 103.00000000000000 -535.46495513998605
1.31464132000000 1.68888476000000 107.31079312000000 -535.41696458698505
1.00132935000000 1.68888476000000 129.32976651000001 -535.45308624855898
0.79559854000000 1.68888476000000  93.69872460000001 -535.42883389233896
1.07554794000000 1.68888476000000 108.08382501000000 -535.46235852140603
0.70584622000000 1.68888476000000 128.41054029000000 -535.33512652147897
0.78727020000000 1.68888476000000  75.27930204000000 -535.39914598892506
0.96446195000000 1.66415801000000 112.92023195000000 -535.46942114326498
0.96446195000000 1.75796138000000 111.56029010000000 -535.46721055927901
1.00418267000000 1.83641904000000 103.00000000000000 -535.46341682220896
1.38793888000000 1.68888476000000 114.40689195000000 -535.39920076295198
0.96446195000000 1.67403057000000  65.09147020000000 -535.42036419963802
0.92269316000000 1.76622176000000 103.00000000000000 -535.46782336961996
0.96446195000000 1.77536309000000  87.20709558000000 -535.46447697345502
0.73793827000000 1.49454263000000 103.00000000000000 -535.36417173821997
0.96446195000000 1.79741259000000  80.22969215000001 -535.45719178279603
1.19633766000000 1.42391849000000 103.00000000000000 -535.38965429775999
0.89255383000000 1.53838775000000 103.00000000000000 -535.45310158122197
0.96446195000000 1.67555604000000 100.87645427000000 -535.47176722039296
0.96446195000000 1.74773622000000 102.89769501000001 -535.47065610642301
0.96446195000000 1.66598753000000 108.91407896000000 -535.47104585747002
0.96562428000000 1.68888476000000 100.23154051000000 -535.47181313444605
1.03451058000000 1.60380827000000 103.00000000000000 -535.46422803641599
0.96446195000000 1.75072609000000  71.27584007999999 -535.44287665519698
0.96446195000000 1.60949223000000 104.37079153000001 -535.46893675333502
0.91294101000000 1.68888476000000 107.13455655000000 -535.46881229945495
0.70178476000000 1.71829738000000 103.00000000000000 -535.34467486197400
0.90231259000000 1.68888476000000 116.28198619000000 -535.46315636386998
0.96446195000000 1.73027836000000 101.86300788000000 -535.47137874694602
1.15003807000000 1.68888476000000 107.87371174000000 -535.45011355812892
0.96446195000000 2.07070578000000 107.32090291999999 -535.43694344263395
0.96446195000000 1.71161709000000 127.48668089000000 -535.45563689466996
0.91366944000000 1.68888476000000 113.82589684000000 -535.46615987623898
1.06721379000000 1.78863953000000 103.00000000000000 -535.46085657767696
1.10158033000000 1.68888476000000  77.84529523000000 -535.44050862026893
0.96446195000000 1.82522280000000 102.91448726000000 -535.46554921020697
1.18375683000000 1.68888476000000 126.09160145000000 -535.43052038385395
1.02733648000000 1.68888476000000 110.80980409000000 -535.46709557358201
0.96446195000000 1.91698100000000 105.97098020000000 -535.45548017543001
1.13290516000000 1.68888476000000 135.61566350000001 -535.42762713033301
1.26741875000000 1.62220165000000 103.00000000000000 -535.42497694090696
0.95385636000000 1.96473422000000 103.00000000000000 -535.45100970695796
0.96446195000000 1.63412477000000 132.27832920000000 -535.45130289270492
0.71479938000000 1.71699067000000 103.00000000000000 -535.36125420236795
0.95452387000000 1.69343257000000 103.00000000000000 -535.47193797001705
1.16062320000000 1.68888476000000 121.27069458000000 -535.43986674544203
1.11721086000000 1.68888476000000  72.66925506000000 -535.42956601887101
0.96446195000000 1.54881686000000 138.48408104000001 -535.43805579871696
1.11474522000000 1.68888476000000 118.82151225000000 -535.45017653399600
0.96446195000000 1.68621320000000  87.17937193000000 -535.46405942220201
1.01931029000000 1.64377182000000 103.00000000000000 -535.46853242462896
1.12277160000000 1.68888476000000  69.36257864000000 -535.42249316737502
0.96446195000000 1.68977182000000  77.09021777000000 -535.45014701899595
1.30179044000000 1.68888476000000  93.41824875000000 -535.41775244152200
0.96446195000000 1.69870891000000 123.35124925000000 -535.46076198027902
0.96446195000000 1.92128539000000 105.43523801000001 -535.45522676189398
1.10903518000000 1.68888476000000  78.50616090000000 -535.44039218975797
0.96446195000000 1.70395953000000 114.23758438999999 -535.46816270691397
0.96446195000000 1.74796859000000  84.78920755999999 -535.46278899190497
0.97491916000000 1.68888476000000 125.73712345000000 -535.45842132548796
1.02247540000000 1.68888476000000  60.39605778000000 -535.40860693085403
0.96446195000000 1.84520140000000  80.13156785000000 -535.45538241386203
0.84422668000000 1.68888476000000 103.03048642000000 -535.45411678879896
1.01095992000000 1.68888476000000 102.35861448000000 -535.47023796414999
0.97048750000000 1.52092027000000 103.00000000000000 -535.45449008972003
1.11054181000000 1.77841878000000 103.00000000000000 -535.45505406973996
1.10552863000000 1.68888476000000 105.95848279000001 -535.45831235300795
1.08779699000000 1.66573730000000 103.00000000000000 -535.46106451566891
0.74522380000000 1.86472214000000 103.00000000000000 -535.38246127332798
0.96446195000000 1.67121298000000  72.30697843000000 -535.43867668211897
0.96446195000000 1.69280758000000  92.47519653000001 -535.46872476549095
0.83895340000000 1.95842614000000 103.00000000000000 -535.43089411478297
1.21755861000000 1.68888476000000 108.93698567000000 -535.43661182833205
0.96446195000000 1.84783178000000 109.59199921000000 -535.46096017845400
0.96446195000000 1.72556489000000  96.42881084000000 -535.47067552250303
0.96446195000000 1.94357385000000 125.02157590000000 -535.43721445766005
0.96446195000000 1.96713668000000 119.74374894000000 -535.44004308398200
1.00419311000000 1.61198491000000 103.00000000000000 -535.46756466225202
0.84781629000000 1.68888476000000 119.80050747000000 -535.44796848243698
1.34286253000000 1.54806251000000 103.00000000000000 -535.40042975176198
1.06589150000000 1.68888476000000 108.62612485000000 -535.46351302552500
1.31811315000000 1.68888476000000  82.83447735999999 -535.40590263349895
0.75161873000000 1.68888476000000  78.41514863000000 -535.37832422460804
1.44504725000000 1.59735260000000 103.00000000000000 -535.38717804641101
0.96446195000000 1.94599513000000  98.37118294000000 -535.45434712137603
1.16604673000000 1.89424411000000 103.00000000000000 -535.43574200387400
1.00031668000000 1.57526281000000 103.00000000000000 -535.46366094209498
0.96446195000000 1.58380540000000  81.35878952000000 -535.44359684320500
1.09916429000000 1.64748449000000 103.00000000000000 -535.45868320696695
0.99450899000000 1.68888476000000  89.48484247000000 -535.46569395438405
0.99496317000000 1.80913944000000 103.00000000000000 -535.46613938723601
0.81526699000000 1.95762233000000 103.00000000000000 -535.42074725932400
0.96491781000000 1.67135836000000 103.00000000000000 -535.47189868382702
0.81472831000000 1.68888476000000  64.72058033000000 -535.38703072006604
0.77345432000000 1.68888476000000  98.17058879000000 -535.41653939296100
0.85382286000000 1.68888476000000  97.51211800000000 -535.45619742129600
1.33766955000000 1.68888476000000  85.85878176000000 -535.40481016589604
0.96446195000000 1.59692753000000  97.64042743000000 -535.46543667414403
0.96446195000000 2.06069161000000  90.29763153000000 -535.44156315941598
1.10595161000000 2.00929630000000 103.00000000000000 -535.43366473099695
0.83971957000000 1.44071601000000 103.00000000000000 -535.40829288691396
0.96446195000000 1.55746830000000 144.52159839999999 -535.43073573399397
1.01982148000000 1.68888476000000  82.38509535000000 -535.45641674725698
0.96446195000000 1.73524695000000 116.75474981000001 -535.46506273017701
0.96446195000000 1.61518859000000  98.95108370000000 -535.46804376122395
0.96446195000000 1.89606064000000  90.04393448000000 -535.45846640264494
1.06346344000000 1.68888476000000 113.69646990000000 -535.46151532372596
1.17836859000000 1.65470074000000 103.00000000000000 -535.44481466784396
0.96446195000000 1.72543836000000 143.73525028000000 -535.43169310062092
1.17752246000000 1.68888476000000 127.10124587000000 -535.43056820913500
0.96446195000000 1.55369855000000 110.30947501000000 -535.46204718946092
0.96446195000000 1.81031798000000  67.77054772000000 -535.43766628099502
0.80470600000000 1.68888476000000 117.99662644000000 -535.43113857435299
1.03256918000000 1.68888476000000 128.78589657000001 -535.45118378256802
1.10674335000000 1.68888476000000  94.17421697000000 -535.45629253156403
0.75579918000000 1.68888476000000 110.99830178000001 -535.40203179911305
1.00259815000000 1.58640914000000 103.00000000000000 -535.46499273532402
0.93123743000000 1.68888476000000 147.91789761999999 -535.42642764435504
1.15687354000000 1.65110123000000 103.00000000000000 -535.44878350892498
0.96446195000000 1.54601075000000 109.65656342000000 -535.46084367612798
0.88372967000000 1.68888476000000  89.46816640000000 -535.45870708896200
1.14948000000000 1.68888476000000  95.55977799999999 -535.44952276026697
1.03092308000000 1.68888476000000  83.51303602999999 -535.45693999695095
1.37121143000000 1.62685684000000 103.00000000000000 -535.40389687651293
0.88672000000000 2.03611008000000 103.00000000000000 -535.43526046070394
0.94537973000000 1.52806813000000 103.00000000000000 -535.45594863128497
1.40324561000000 1.68888476000000  93.44558567000000 -535.39677260745498
0.96446195000000 1.80118802000000  71.24624301000000 -535.44408977294893
1.13298904000000 1.68888476000000  78.76485596000001 -535.43696358783404
0.96446195000000 1.72953081000000  76.66885764000000 -535.45174899051699
0.96446195000000 1.61596209000000  68.53193840000000 -535.41968655203300
0.96446195000000 1.77709363000000  82.88183515000000 -535.46052076419403
1.50086580000000 1.68888476000000 109.40853140999999 -535.37990925429301
0.70623880000000 1.68888476000000 100.52473145000000 -535.35096257675502
0.89748897000000 1.67509919000000 103.00000000000000 -535.46712456782200
0.83013656000000 1.98318537000000 103.00000000000000 -535.42443609559496
1.05641791000000 1.84601870000000 103.00000000000000 -535.45776832266893
0.96446195000000 1.86730460000000 111.02650260999999 -535.45817228776093
1.06614104000000 1.68410083000000 103.00000000000000 -535.46442430208197
1.17708510000000 1.68888476000000 110.49106383000000 -535.44406851926999
1.01523126000000 1.68888476000000 127.72846470000000 -535.45403399711597
0.80919746000000 1.68888476000000  66.05285777000000 -535.38833460429805
0.83303809000000 1.62733090000000 103.00000000000000 -535.44838088816596
1.06357118000000 1.52023609000000 103.00000000000000 -535.44690091319205
0.86450002000000 1.68888476000000  62.99807939000000 -535.40083178149291
1.11608482000000 1.72649779000000 103.00000000000000 -535.45640302930497
1.02376223000000 1.68888476000000 125.24376942000001 -535.45613609322095
0.96446195000000 1.54846536000000 116.18165024000000 -535.45939043827502
0.96446195000000 1.83381532000000  92.31216464000001 -535.46424863850802
0.96446195000000 1.53426239000000  87.29927649000000 -535.44222520034600
1.29206393000000 1.68888476000000 105.50642116000000 -535.42201433157697
1.05626567000000 1.68888476000000  81.32877607000000 -535.45150364101301
0.97672991000000 1.68888476000000 107.58637610000000 -535.47129252804802
0.96446195000000 1.53040089000000  84.20115751000000 -535.43569849299604
1.02424265000000 1.63888768000000 103.00000000000000 -535.46785417358717
1.05897994000000 1.68888476000000 124.36787443999999 -535.45321701221201
1.01822347000000 1.68888476000000 120.93547700000001 -535.46096004586695
0.96446195000000 1.62091769000000  97.22890190000000 -535.46773453257299
1.26817000000000 1.71216113000000 103.00000000000000 -535.42706145931197
0.95759554000000 1.68888476000000 128.92749273999999 -535.45480636177297
1.25123901000000 1.68888476000000 106.94979881000000 -535.43025393046298
1.06094041000000 1.68888476000000  93.48836061999999 -535.46256492451300
0.90957544000000 1.68888476000000  88.65207494000001 -535.46219629787197
0.95885000000000 1.68888476000000  78.62352204000000 -535.45261724417901
1.04315346000000 1.79547360000000 103.00000000000000 -535.46329564848304
1.00320415000000 1.82984866000000 103.00000000000000 -535.46403682084099
0.96446195000000 1.56786999000000 137.58819901000001 -535.44120569443203
0.99456759000000 1.68888476000000 132.72623872000000 -535.44908413995404
1.26516957000000 1.68888476000000  88.37600556000000 -535.42209746069295
0.89755001000000 1.66208421000000 103.00000000000000 -535.46691172575402
0.98695933000000 1.68888476000000 115.01461931999999 -535.46756665954797
0.96446195000000 1.61340374000000 146.29762199000001 -535.43121416091003
0.96446195000000 1.97237450000000 119.25969046000000 -535.43989408068296
0.83016281000000 1.68888476000000  67.40098370000000 -535.40222132986798
0.81794910000000 1.71974667000000 103.00000000000000 -535.44295075854598
1.04733088000000 1.68888476000000 131.55552458000000 -535.44605673814499
1.01708933000000 1.68888476000000  92.36711181000000 -535.46643540129003
0.96446195000000 1.69926107000000  93.88017300000000 -535.46966669080200
0.87618213000000 1.53000888000000 103.00000000000000 -535.44815925973501
1.07996540000000 1.63340397000000 103.00000000000000 -535.46086369796399
1.15827149000000 1.49440883000000 103.00000000000000 -535.42451549218902
0.96446195000000 1.85167885000000  91.68602478000000 -535.46271377541291
0.96446195000000 1.81254528000000  92.58254789999999 -535.46576250502699
1.32803900000000 1.68888476000000 120.54685583000000 -535.40690451240596
1.17882247000000 1.68888476000000 102.88493085000000 -535.44539887882900
1.03422582000000 1.68888476000000  81.71196836999999 -535.45430443989005
0.99923865000000 1.89980568000000 103.00000000000000 -535.45758605678100
0.93045909000000 1.58763886000000 103.00000000000000 -535.46540700072296
0.96446195000000 1.62847345000000 107.19008640000000 -535.47021180819604
0.96446195000000 1.60882531000000  60.51910141000000 -535.39043205625205
1.03450953000000 1.56365526000000 103.00000000000000 -535.45906818973117
1.10509041000000 1.68104555000000 103.00000000000000 -535.45862900470490
1.48791785000000 1.68888476000000 111.27791003999999 -535.38164324132003
0.83975094000000 1.51421255000000 103.00000000000000 -535.43401289311998
0.96446195000000 1.61914578000000  75.54423324000000 -535.43830788983598
0.95046641000000 1.71563524000000 103.00000000000000 -535.47153725551095
0.96446195000000 1.77607592000000 114.76522495000000 -535.46391625567503
0.90459393000000 1.68888476000000  75.46597807000001 -535.44231761143999
0.90660057000000 1.68888476000000 100.88694331000001 -535.46833865160397
1.02826379000000 1.73705279000000 103.00000000000000 -535.46792214989500
1.21375089000000 1.54315788000000 103.00000000000000 -535.42573624132399
0.96446195000000 1.79253002000000 106.13553324999999 -535.46726353612905
0.96446195000000 1.73985011000000  59.20777573000000 -535.41129408747804
0.96446195000000 1.68690912000000  89.93759556000001 -535.46667154904003
1.25572477000000 1.68068056000000 103.00000000000000 -535.42974524683598
0.96446195000000 1.83942172000000  78.89188083000001 -535.45431844378493
0.96446195000000 1.74290667000000  76.78981243000000 -535.45240399507395
0.96446195000000 1.71344974000000  99.23533120000000 -535.47154672003796
1.21475630000000 1.68888476000000  79.27280027000000 -535.42275781394596
0.96446195000000 1.72729621000000 108.43133133000001 -535.47023052386396
0.73930038000000 1.82380741000000 103.00000000000000 -535.38082938282696
0.98043882000000 1.68888476000000 117.89883301000000 -535.46573038404404
0.96446195000000 1.67925684000000  94.05348046000000 -535.46935247239696
0.84533202000000 1.68888476000000  98.60753635000000 -535.45380924138499
1.20127670000000 1.55587938000000 103.00000000000000 -535.43055128936896
1.09898613000000 1.68888476000000 127.66461128000000 -535.44378596213903
0.91722772000000 1.71158586000000 103.00000000000000 -535.46948002767101
1.09691033000000 1.89672998000000 103.00000000000000 -535.44737769480298
1.00142561000000 1.68888476000000 105.79198301000000 -535.47064005818800
0.91520379000000 1.41559623000000 103.00000000000000 -535.41224457076601
1.18934827000000 1.54590625000000 103.00000000000000 -535.43109517430491
1.15771371000000 1.68888476000000 103.31226945000000 -535.44942512431896
0.85975736000000 1.88432440000000 103.00000000000000 -535.44617926580997
0.96446195000000 1.65700905000000 125.78839677000001 -535.45904737131400
0.96446195000000 1.84292580000000  76.07738558000000 -535.45081828798402
0.87839058000000 1.62216753000000 103.00000000000000 -535.46154771832300
0.96446195000000 1.88818202000000  79.29091604000000 -535.45216883925696
0.96446195000000 1.56458290000000 129.41587978000001 -535.45083549188405
0.95551938000000 1.77497920000000 103.00000000000000 -535.46909907708505
1.21267571000000 1.66796604000000 103.00000000000000 -535.43838721029897
1.10474598000000 1.85587660000000 103.00000000000000 -535.45009123524505
1.01797306000000 1.77411550000000 103.00000000000000 -535.46704392197103
0.96446195000000 1.73699184000000 118.22761361000001 -535.46377315145901
1.09736276000000 1.68888476000000 135.06673115999999 -535.43433462532801
0.96446195000000 1.47287751000000 105.06286827000000 -535.44121140782295
0.69242663000000 1.68888476000000  89.49326357000000 -535.32592164649691
0.96723788000000 1.68888476000000 112.56709227000000 -535.46946217811399
1.21063393000000 1.47166170000000 103.00000000000000 -535.40709231964502
0.77116258000000 1.68888476000000  77.32400036999999 -535.39213462591692
0.96446195000000 1.44569047000000 104.71964644000001 -535.43037041294804
0.91709738000000 2.02311355000000 103.00000000000000 -535.44158008520299
0.96446195000000 1.69033885000000  70.56884516000000 -535.43686864662891
0.96446195000000 1.70157578000000  96.07862899000000 -535.47071194017599
0.97637983000000 1.68888476000000  95.66154272000000 -535.47029911148695
0.96446195000000 1.48234149000000  78.91460305000000 -535.40614965689701
0.96446195000000 1.51912909000000  96.84656330000000 -535.45004251335297
0.91105455000000 1.71698292000000 103.00000000000000 -535.46866382927396
0.82019893000000 1.68888476000000 119.79972164000000 -535.43728080774201
0.96446195000000 1.61641032000000  93.29296519000000 -535.46462998116101
0.96446195000000 1.71532608000000 119.17002334000000 -535.46405455278204
0.81154231000000 1.57193622000000 103.00000000000000 -535.43342724335196
0.82817160000000 1.68888476000000 100.51741613000000 -535.44777985007295
0.96446195000000 1.73800509000000 102.68574638000000 -535.47107683846696
1.39196639000000 1.68888476000000 120.37954747000001 -535.39431612582598
0.95459184000000 1.68888476000000  78.49233018000000 -535.45228175546902
0.96446195000000 1.69814739000000  96.62870433000001 -535.47090561767197
1.02408774000000 1.68888476000000  84.32376893000000 -535.45851146184998
0.95969103000000 1.78293190000000 103.00000000000000 -535.46866280638505
1.00743054000000 1.63521818000000 103.00000000000000 -535.46900595018997
0.96446195000000 1.75825682000000  67.43785244000000 -535.43512993427396
1.07275905000000 1.68888476000000 118.17206744000001 -535.45716023807097
0.80378282000000 1.43426095000000 103.00000000000000 -535.38955134137916
0.96446195000000 1.77359061000000  93.24990927000000 -535.46807257780404
1.14457295000000 1.68888476000000 106.78516782000000 -535.45139518504004
0.96446195000000 1.59989175000000  88.02855704000000 -535.45698979150200
0.94369709000000 1.68888476000000  97.04313252000000 -535.47052791589999
0.91148055000000 1.56019996000000 103.00000000000000 -535.45979012003602
1.38800109000000 1.70992341000000 103.00000000000000 -535.40220882739504
0.96446195000000 1.71681598000000  94.55462780000001 -535.47005173881200
1.23400555000000 1.61211476000000 103.00000000000000 -535.43107789461101
0.82112525000000 1.68888476000000 108.58481972000000 -535.44421783830296
0.79427575000000 1.68888476000000  69.44187153999999 -535.38958359448804
0.96446195000000 1.90741658000000  83.07782345000000 -535.45391386945198
1.05066099000000 1.68888476000000 113.79280824999999 -535.46306126491504
0.96446195000000 1.71674242000000  76.68789180000000 -535.45119018730600
0.79738976000000 1.68888476000000  99.38003286000000 -535.43237544041301
0.96446195000000 1.85864190000000  98.35989025000001 -535.46316354207693
0.99132333000000 1.71246602000000 103.00000000000000 -535.47119350528499
1.53204863000000 1.70956778000000 103.00000000000000 -535.37483337581295
1.18839131000000 1.68888476000000 108.55417222000000 -535.44257474096901
0.96446195000000 1.63459538000000  98.03565072000001 -535.46920757227895
1.14131039000000 1.89256755000000 103.00000000000000 -535.44043531485204
0.83767630000000 1.68888476000000 114.62057077999999 -535.44822900730401
1.29900016000000 1.61530212000000 103.00000000000000 -535.41789273076097
1.27319378000000 1.63772637000000 103.00000000000000 -535.42475461867502
0.84378347000000 1.95271732000000 103.00000000000000 -535.43334115830203
0.92766399000000 2.04364421000000 103.00000000000000 -535.44021866545995
0.96446195000000 1.81420462000000  77.90759552999999 -535.45399366681397
0.96446195000000 1.68940299000000  89.94789323000001 -535.46676246452398
0.96446195000000 1.53842133000000 118.92282627000000 -535.45630160168002
0.96446195000000 1.74270044000000  70.17478257000000 -535.44022494547096
0.95366968000000 1.96319179000000 103.00000000000000 -535.45118155751402
0.77099895000000 1.68718674000000 103.00000000000000 -535.41564165572095
0.81855326000000 1.75441111000000 103.00000000000000 -535.44172334950701
1.08124455000000 1.68888476000000 140.54910665000000 -535.42858992141396
1.02221083000000 1.68888476000000 120.36208803000000 -535.46113606724703
0.96446195000000 1.46318107000000  87.79353989000001 -535.41763776740800
1.15648119000000 1.68888476000000  93.89392067999999 -535.44746074983698
0.87374585000000 1.69406212000000 103.00000000000000 -535.46254878786601
0.99724084000000 1.68888476000000 102.71912926000000 -535.47111927568005
1.00715154000000 1.68888476000000  71.36310613000001 -535.43806456775803
1.14390492000000 1.84975775000000 103.00000000000000 -535.44399557621705
0.96446195000000 1.61414711000000 126.74384370000000 -535.45726668327404
1.07810344000000 1.57603484000000 103.00000000000000 -535.45549343370396
0.76827354000000 1.63770446000000 103.00000000000000 -535.41271346358803
0.84846908000000 1.80941828000000 103.00000000000000 -535.44977056341395
0.94130620000000 1.68888476000000  78.85506965000000 -535.45229700725497
0.85920311000000 1.68888476000000 115.14790101000000 -535.45491290185305
0.95426552000000 1.68888476000000 111.02803358000000 -535.47013139806097
0.96446195000000 1.62972037000000  91.99004374000000 -535.46485957350205
0.96446195000000 1.80800700000000  73.42691347000000 -535.44774355310096
0.96446195000000 1.96335291000000 126.69158664000000 -535.43305272550799
1.17823976000000 1.64995001000000 103.00000000000000 -535.44465389416303
0.96446195000000 1.62409494000000  67.59817285000000 -535.41867573398395
0.96446195000000 1.94789776000000  82.97800798999999 -535.45047692195305
1.20358088000000 1.64316334000000 103.00000000000000 -535.43933572555795
0.96446195000000 1.84016058000000  82.47211249999999 -535.45786577007402
1.33492585000000 1.68888476000000 118.63446005999999 -535.40705380137797
1.39410885000000 1.80750687000000 103.00000000000000 -535.39646795353201
0.96446195000000 2.16141485000000 111.55380513999999 -535.42436225811116
1.11350460000000 1.62037759000000 103.00000000000000 -535.45472156167705
0.93125953000000 1.68888476000000  89.80094029999999 -535.46539403891904
0.96446195000000 1.68830611000000  73.82264589000000 -535.44377144808595
0.96446195000000 1.62913582000000  72.76097738000000 -535.43356757478000
1.37548007000000 1.68888476000000 112.88130103000000 -535.40247971716599
1.03166123000000 1.68888476000000 112.48319391000000 -535.46587112678696
1.06703050000000 1.57763650000000 103.00000000000000 -535.45725836564895
1.07006024000000 1.68888476000000 103.85439909000000 -535.46388586975797
0.96446195000000 1.79035206000000  64.47788305000000 -535.42991296834896
1.09679297000000 1.68888476000000 112.67002599999999 -535.45728050219395
1.07980837000000 1.44448710000000 103.00000000000000 -535.41921095100099
0.89228505000000 1.97845471000000 103.00000000000000 -535.44319750478701
1.11325493000000 1.68888476000000 130.35272251000001 -535.43816296027001
0.96446195000000 1.88508809000000 107.05578228000000 -535.45844430919692
0.91980853000000 1.53977361000000 103.00000000000000 -535.45688589841495
1.00609713000000 1.68888476000000  92.60366320000000 -535.46737199898405
1.14664526000000 1.68888476000000  78.03238607999999 -535.43360934625503
0.96446195000000 1.89046522000000 114.89592207000000 -535.45299172467799
1.05428059000000 1.68888476000000 107.11038772000001 -535.46542808163201
0.98428260000000 1.68888476000000 102.42764905999999 -535.47168634084505
1.01612753000000 1.68888476000000  92.96607843000000 -535.46688736345902
0.96446195000000 1.56541082000000  79.02591182000000 -535.43467060518492
1.09635982000000 1.68888476000000  92.67495054000000 -535.45710253561697
1.44785370000000 1.68888476000000 119.94263943999999 -535.38406015308999
0.96446195000000 1.75978974000000  84.48673324000001 -535.46240313533201
0.96446195000000 1.51062098000000 143.13632996000001 -535.42619772173202
0.73767924000000 1.68888476000000 105.76968801000000 -535.38683160656399
1.04410132000000 1.68888476000000 106.28054869000000 -535.46680609697103
0.78334597000000 1.68888476000000  93.04746102000000 -535.42078056127104
1.11485811000000 1.83122617000000 103.00000000000000 -535.45058674716495
0.86013787000000 1.68888476000000 117.84620199000000 -535.45327917968302
0.86974990000000 1.68888476000000  79.29821815000000 -535.44237392764398
0.96446195000000 1.49658016000000  79.61940251000000 -535.41395233389517
1.09358235000000 1.90525874000000 103.00000000000000 -535.44700859102204
0.74739849000000 1.72609871000000 103.00000000000000 -535.39526745342800
0.96446195000000 1.60485730000000 118.31758927000000 -535.46420989134901
0.96446195000000 1.83630752000000  79.50048753000000 -535.45511564693197
1.20727928000000 1.68888476000000 113.04560374000000 -535.43687900600901
1.07195734000000 1.80622075000000 103.00000000000000 -535.45900914112701
0.80792139000000 1.68888476000000  74.41083356999999 -535.40930766762096
1.32195139000000 1.68888476000000 111.95553955000000 -535.41382875059696
1.02099043000000 1.68738223000000 103.00000000000000 -535.46944323373498
0.95051806000000 1.68888476000000 106.68003688000000 -535.47147280684601
0.92303061000000 1.89182892000000 103.00000000000000 -535.45719426118399
0.96446195000000 1.57329739000000 127.31866451000000 -535.45393250472603
1.13728471000000 1.68888476000000 108.70486901000000 -535.45217696528300
0.96446195000000 1.96275016000000 124.44540508999999 -535.43569220958898
0.96446195000000 1.59457879000000 135.85333449000001 -535.44539431813701
0.96446195000000 1.76946639000000  87.37545320000000 -535.46476877475595
1.03731324000000 1.94628807000000 103.00000000000000 -535.44968891012093
0.78713819000000 1.93172258000000 103.00000000000000 -535.40789749134206
0.93599096000000 1.68888476000000 108.47358590000000 -535.47040651675502
0.90586026000000 1.68888476000000  99.16841219000000 -535.46791241234803
1.23419707000000 1.57858426000000 103.00000000000000 -535.42738054137806
0.95854294000000 1.68888476000000  89.40461637999999 -535.46622629321291
0.75041096000000 1.68888476000000 104.22680540000000 -535.39891580925496
1.38293652000000 1.68888476000000 108.43028024000000 -535.40267295682304
0.81067517000000 1.68888476000000  61.13329469000000 -535.37280048521291
1.04336634000000 1.50466433000000 103.00000000000000 -535.44529676252205
0.96446195000000 1.86553874000000  94.49898159999999 -535.46228051895503
1.07131112000000 1.68888476000000 109.11162955000000 -535.46261540302203
0.96446195000000 1.76055341000000 101.77478691000000 -535.47013221862403
0.96446195000000 1.77285938000000  75.26567574000001 -535.45057100819099
0.96446195000000 1.70005067000000  75.67735221000000 -535.44835981708604
0.96446195000000 1.72594208000000  76.72700685000000 -535.45169470855899
0.96446195000000 1.75323847000000 108.99452610000000 -535.46875558993395
0.96446195000000 1.69284944000000  87.07399001000000 -535.46421971695293
0.90551307000000 1.68888476000000  87.06822575000000 -535.46005558887396
0.93965624000000 1.71832898000000 103.00000000000000 -535.47104752453401
0.96446195000000 1.69059352000000  82.06978035000000 -535.45808456600798
0.96446195000000 1.80813111000000 114.32062797000000 -535.46163928374597
0.76603184000000 1.79453444000000 103.00000000000000 -535.40684988447799
0.82312657000000 1.68888476000000 116.50853334000000 -535.44112531851499
1.08545506000000 1.99284293000000 103.00000000000000 -535.43859879042600
1.05175279000000 1.68888476000000 126.44638232000000 -535.45182262322396
1.20560701000000 1.65119220000000 103.00000000000000 -535.43928623386296
0.93479944000000 1.57141445000000 103.00000000000000 -535.46351827338401
0.89579934000000 1.70450092000000 103.00000000000000 -535.46676671030400
0.96446195000000 1.86102987000000  84.90680517000000 -535.45855356476602
1.22972459000000 1.68888476000000 106.76582552000001 -535.43473242916798
0.95104189000000 1.79244798000000 103.00000000000000 -535.46784005244297
1.08751011000000 1.68888476000000  81.17738022000000 -535.44730418348797
0.71571723000000 1.83836238000000 103.00000000000000 -535.35370569368695
1.02067603000000 1.74889756000000 103.00000000000000 -535.46812201675198
0.72950850000000 1.86669527000000 103.00000000000000 -535.36645881787899
1.34852352000000 1.68888476000000 109.47999618999999 -535.40934806600296
0.96446195000000 1.81463109000000 116.74297448999999 -535.45917120778597
0.88295488000000 1.58967548000000 103.00000000000000 -535.45949951731916
0.80659737000000 1.68888476000000  72.24526320000000 -535.40366945131098
0.96446195000000 1.69935512000000 100.62340731000000 -535.47187596862602
1.07814222000000 1.60175638000000 103.00000000000000 -535.45858606541299
0.97315550000000 1.79369393000000 103.00000000000000 -535.46792978561996
0.96446195000000 1.92862420000000 118.43433041999999 -535.44570020592801
0.96446195000000 1.72509186000000  85.21035264000000 -535.46310424700198
0.97362383000000 1.68888476000000 109.71235313000000 -535.47067410695797
0.78603554000000 1.68888476000000 100.37363916000000 -535.42569712897603
0.87780413000000 1.71797244000000 103.00000000000000 -535.46304173370800
1.02704164000000 1.82670680000000 103.00000000000000 -535.46252252894101
0.87534421000000 1.60276322000000 103.00000000000000 -535.45927865492797
0.96446195000000 1.69561642000000 112.24964407000000 -535.46951350095117
0.96446195000000 1.65013448000000 103.08912827000000 -535.47132380865196
0.74023332000000 1.74524288000000 103.00000000000000 -535.38761255662700
0.96446195000000 1.80174211000000 113.93735608999999 -535.46246308441198
0.89770306000000 1.68888476000000  78.27965555000000 -535.44649559137292
0.96446195000000 1.95351512000000 109.73905212000000 -535.44940472351800
1.03181650000000 1.86696690000000 103.00000000000000 -535.45848622331800
1.24219386000000 1.82943691000000 103.00000000000000 -535.42645109653301
0.96446195000000 1.70700214000000  85.89562586000000 -535.46345325911295
1.26457032000000 1.67945284000000 103.00000000000000 -535.42788884746506
0.96446195000000 1.57445458000000  92.12369748000000 -535.45762103226400
1.05029018000000 1.68888476000000  67.11275946000001 -535.42566487593899
0.96446195000000 1.59048318000000  95.32741957000000 -535.46305399601897
0.96446195000000 1.88138944000000 104.32748862000000 -535.45989939650099
0.96446195000000 1.74897503000000  97.15472969000000 -535.47025917104895
1.17563838000000 1.68888476000000  81.30343492000000 -535.43280639663601
0.86175964000000 1.80689102000000 103.00000000000000 -535.45404161299291
1.02141005000000 1.68888476000000 109.64224478000000 -535.46810938852298
1.06772404000000 1.68888476000000  95.46400688000000 -535.46266952681117
0.93689309000000 1.81112819000000 103.00000000000000 -535.46581208179100
1.00858823000000 1.73045884000000 103.00000000000000 -535.46974907716401
1.16306489000000 1.70532262000000 103.00000000000000 -535.44836883715402
0.96446195000000 1.78523364000000  92.78052716000001 -535.46735279516201
0.82279729000000 1.64208480000000 103.00000000000000 -535.44490541680796
1.22284478000000 1.70066965000000 103.00000000000000 -535.43657600908898
0.96446195000000 1.77089985000000 100.00156094000000 -535.46962283541495
1.25990429000000 1.68888476000000  82.30044684000001 -535.41735379971897
1.30801081000000 1.68888476000000 104.93504469000000 -535.41875616446805
0.95017619000000 1.68888476000000 126.00249925000000 -535.45809314892199
0.96446195000000 1.80353776000000 105.21984383000000 -535.46671805671497
0.97587038000000 1.72287438000000 103.00000000000000 -535.47144828433693
0.89803370000000 1.68888476000000  71.96057574000000 -535.43370372257698
0.96446195000000 1.90854602000000  88.73968755000000 -535.45687486531403
0.96446195000000 1.59920174000000 139.89437201999999 -535.44009614827996
1.02122600000000 1.68888476000000 118.62927947000000 -535.46270562388497
0.94662797000000 1.68888476000000  95.90875892000000 -535.47018376472704
1.00429987000000 1.85992827000000 103.00000000000000 -535.46127947719003
0.92631684000000 1.81566267000000 103.00000000000000 -535.46467991261693
0.96446195000000 1.88306371000000  91.45963906999999 -535.46006026722796
1.12163924000000 1.68888476000000  96.99461340000001 -535.45499556181005
0.96446195000000 1.60156840000000  77.29581527000001 -535.43890756599296
0.96446195000000 1.97142461000000 115.23627971000001 -535.44348924196595
1.00676816000000 1.68888476000000 103.66840995000000 -535.47052260958003
0.96446195000000 1.64079359000000 135.10379205999999 -535.44763266247401
0.95407837000000 2.07817327000000 103.00000000000000 -535.43772040781596
0.95058570000000 1.69383403000000 103.00000000000000 -535.47184538843692
1.09877837000000 1.68888476000000  62.47064711000000 -535.40977302502802
0.79920463000000 1.68888476000000 128.39686301000000 -535.41796469531096
0.96446195000000 1.61937054000000  96.32481370000001 -535.46708195938891
0.96446195000000 1.67507184000000  85.76828555000000 -535.46192310633000
1.01735141000000 1.68888476000000  79.70070982000000 -535.45278309681396
0.96446195000000 1.67443426000000  95.46230550000000 -535.46996969828001
0.96446195000000 1.64224324000000 109.01634364000000 -535.47047962307397
0.90919622000000 1.68888476000000  94.45980686999999 -535.46648765797602
0.90388776000000 1.68888476000000  85.82154377000001 -535.45843531196601
0.82590593000000 1.68888476000000 103.94917192000000 -535.44707160605503
0.96891811000000 1.68888476000000  76.48406022000000 -535.44903314424403
0.79271227000000 1.85115568000000 103.00000000000000 -535.42020016676497
1.29763920000000 1.68888476000000 109.43143092000000 -535.41988880435702
1.45390209000000 1.56888991000000 103.00000000000000 -535.38230075883200
1.07314580000000 1.68888476000000 112.79370349000000 -535.46071566231603
0.96446195000000 1.63902859000000  98.97600729000000 -535.46987440112002
1.08807359000000 1.70093747000000 103.00000000000000 -535.46130764177201
1.21248468000000 1.59753973000000 103.00000000000000 -535.43405552185004
0.96446195000000 1.62841703000000  89.57631886000000 -535.46240130832803
0.91125094000000 1.68888476000000 114.34173310000000 -535.46557781483796
0.96446195000000 1.69539628000000 105.42988367000000 -535.47182122855895
0.86965395000000 1.68888476000000 116.25474168000000 -535.45693121332795
0.84580345000000 1.61806484000000 103.00000000000000 -535.45237978497403
0.98606814000000 1.47481901000000 103.00000000000000 -535.44037283067098
0.92222192000000 1.68888476000000 110.20395875000000 -535.46879100657998
0.96446195000000 1.78176457000000 122.12192271000001 -535.45698714171397
0.96446195000000 1.80261758000000 108.61553155999999 -535.46550088388801
0.96446195000000 1.45176905000000  75.86315316000000 -535.38223708816997
0.86551721000000 1.79744992000000 103.00000000000000 -535.45580481489503
1.06944173000000 1.87678448000000 103.00000000000000 -535.45326422463404
0.97772624000000 1.68831483000000 103.00000000000000 -535.47188290445501
1.15262349000000 1.69221343000000 103.00000000000000 -535.45039081663799
1.01636459000000 1.68888476000000 100.20483855000001 -535.46962405820204
0.99107068000000 1.54572603000000 103.00000000000000 -535.45924454595001
1.12910909000000 1.68888476000000 107.29342782000001 -535.45403800841200
0.92482681000000 1.52729846000000 103.00000000000000 -535.45461815386795
0.82479875000000 1.68030477000000 103.00000000000000 -535.44661355608798
0.96446195000000 1.72990193000000  80.34972946000001 -535.45731894338996
0.99757175000000 1.68888476000000  68.98682699000000 -535.43297069145001
1.02612688000000 1.57906669000000 103.00000000000000 -535.46217603452897
0.96446195000000 1.69863757000000  99.06940650999999 -535.47161769930096
0.97013095000000 1.65946551000000 103.00000000000000 -535.47159672148905
1.07953658000000 1.68888476000000  86.51600769000000 -535.45465643919204
1.03315382000000 1.68888476000000  81.14705787000000 -535.45362402767103
1.20440190000000 1.68888476000000  76.05168188000000 -535.42030395448091
0.96446195000000 1.78923205000000  89.86502010000000 -535.46574499531198
0.95552135000000 1.68888476000000  74.36859217999999 -535.44469225918499
1.05828484000000 1.65241900000000 103.00000000000000 -535.46474425562303
1.02343162000000 1.68888476000000 119.00933313000000 -535.46219623792297
1.02781782000000 1.68888476000000  87.63181029000000 -535.46173359321801
0.96446195000000 1.61741520000000 118.96216828999999 -535.46445446654093
0.96446195000000 1.67073913000000 141.54818169999999 -535.43789164365398
0.96446195000000 1.82395223000000  96.97686962000000 -535.46598275558097
1.47781642000000 1.68888476000000 117.10881584000001 -535.38057415778303
0.99805713000000 1.68888476000000 138.45121477000001 -535.44075409796199
1.12358526000000 1.66610795000000 103.00000000000000 -535.45527578177996
1.08830454000000 1.68888476000000  99.57306769000000 -535.46101862873695
1.25519812000000 1.76106748000000 103.00000000000000 -535.42818502838099
1.01237150000000 1.66313115000000 103.00000000000000 -535.46979555139103
1.33150260000000 1.64039673000000 103.00000000000000 -535.41277218137100
1.06396325000000 1.68888476000000  83.98562973000000 -535.45395446220300
0.98526705000000 1.43138019000000 103.00000000000000 -535.42224659307692
0.89580383000000 1.80198179000000 103.00000000000000 -535.46196202353292
0.95904272000000 1.68888476000000  67.04408789999999 -535.42772540983196
0.96446195000000 1.56577572000000  78.56963368000000 -535.43375656667195
0.91242423000000 1.84630102000000 103.00000000000000 -535.46056893744901
1.31369524000000 1.68888476000000 108.26208065000000 -535.41691623998804
0.85599273000000 1.68888476000000  85.77678535000000 -535.44787922596299
1.23333540000000 1.79828771000000 103.00000000000000 -535.43056521476899
1.00630919000000 1.64018890000000 103.00000000000000 -535.46935178682804
1.05438446000000 1.51480066000000 103.00000000000000 -535.44671079083901
0.96446195000000 2.04846870000000  88.16586848000000 -535.44254080380892
0.96446195000000 1.83906808000000 106.02827274000001 -535.46342468370494
0.95567149000000 1.68888476000000 142.76056081999999 -535.43531837695298
0.99534847000000 1.68888476000000  66.24637855000000 -535.42611274023693
0.90405569000000 2.04896421000000 103.00000000000000 -535.43677813090198
1.36187619000000 1.67426869000000 103.00000000000000 -535.40757848701901
0.99780770000000 1.68888476000000 104.49919764000001 -535.47101588809903
1.50246998000000 1.68888476000000 109.82868375000000 -535.37950584524594
0.96446195000000 1.70995618000000  71.68534880999999 -535.44118771084197
1.12218988000000 1.81622840000000 103.00000000000000 -535.45054757761102
1.29287525000000 1.67209761000000 103.00000000000000 -535.42186493171801
0.96446195000000 1.82963412000000 108.52690492000001 -535.46322017161003
1.18641159000000 1.68888476000000 122.64817019000000 -535.43362740915904
0.96446195000000 1.59936745000000 101.84519695000000 -535.46750176931698
0.96446195000000 1.64576034000000 129.14071258999999 -535.45525174108298
0.96446195000000 1.59332371000000 107.33918400000000 -535.46747097523200
0.83424822000000 2.04425584000000 103.00000000000000 -535.41874441248603
1.26512443000000 1.78233714000000 103.00000000000000 -535.42497394558200
1.03651089000000 1.68888476000000 134.35155950999999 -535.44346358107896
0.98245887000000 1.68888476000000  61.78626425000000 -535.41313328857996
0.96446195000000 1.86090299000000  66.84076742000001 -535.43601352583096
1.23985615000000 1.68888476000000  89.74408314000000 -535.42838689426196
1.00045781000000 1.70214521000000 103.00000000000000 -535.47087516823399
0.96446195000000 1.69008639000000 106.96604373000000 -535.47157794897100
0.96446195000000 1.70739722000000  61.25730304000000 -535.41359036031997
0.98546350000000 2.04363665000000 103.00000000000000 -535.44181716159517
0.88271455000000 1.68888476000000  83.48617159000000 -535.45176802014896
1.05743527000000 1.68888476000000 108.23451633000001 -535.46472929573599
1.05574557000000 1.68888476000000 102.92722639000000 -535.46577988434399
0.92443214000000 1.68888476000000 114.48715916000000 -535.46680868650196
1.23502389000000 1.68888476000000  85.02140966000000 -535.42530224457698
1.12060022000000 1.89399804000000 103.00000000000000 -535.44386511556195
0.96446195000000 1.60195059000000 115.23890163000000 -535.46587416903401
0.79314788000000 1.68888476000000 104.92712044000000 -535.43034567804204
0.96728846000000 1.63067546000000 103.00000000000000 -535.47033245841101
1.07641583000000 1.68888476000000 136.10069806000001 -535.43598113105293
1.20313948000000 1.69452971000000 103.00000000000000 -535.44059317401900
0.90000292000000 1.80010502000000 103.00000000000000 -535.46277847682597
1.32596537000000 1.51287789000000 103.00000000000000 -535.39637666295096
1.45853863000000 1.55888254000000 103.00000000000000 -535.38004406084201
0.99965001000000 1.65340057000000 103.00000000000000 -535.47034799777600
0.96446195000000 1.66628105000000  98.66450362000000 -535.47102399584105
0.88601535000000 1.75900668000000 103.00000000000000 -535.46303878381002
1.16188080000000 1.68888476000000 131.29342810000000 -535.42833976428801
1.17990130000000 1.79954728000000 103.00000000000000 -535.44119549302695
0.99914352000000 1.84122148000000 103.00000000000000 -535.46327867160699
0.82348674000000 1.95478784000000 103.00000000000000 -535.42493817138200
0.96446195000000 2.01243427000000 124.48195258000000 -535.43004432940097
0.88839426000000 1.48792252000000 103.00000000000000 -535.43923089926295
1.46101261000000 1.68888476000000 108.34203319000000 -535.38748151008895
1.01718536000000 1.68888476000000  56.09570109000000 -535.39369794773904
0.97723251000000 1.69887113000000 103.00000000000000 -535.47185439835596
1.26182501000000 1.68888476000000  88.25662178000000 -535.42269684404096
0.86098773000000 1.67748552000000 103.00000000000000 -535.45930744161296
1.09002047000000 1.68888476000000 130.91368381999999 -535.44113002341203
0.96446195000000 1.76156673000000 105.71574683000000 -535.46942537049404
0.96446195000000 1.89007820000000  95.60867365000000 -535.46017673583799
1.06121979000000 1.53731147000000 103.00000000000000 -535.45107733437499
0.84468289000000 1.68888476000000  70.45496645999999 -535.41612068252402
1.26159856000000 1.78701524000000 103.00000000000000 -535.42542828285104
0.98223879000000 1.68888476000000 109.13380589000000 -535.47067181567604
0.75013377000000 1.83667536000000 103.00000000000000 -535.38981260080493
1.12171581000000 1.68888476000000  83.70791709000000 -535.44519988139598
0.96446195000000 1.85690574000000  78.58764502000000 -535.45320016886296
1.01242691000000 1.68888476000000  74.87086932000000 -535.44489624304094
1.31153830000000 1.75229929000000 103.00000000000000 -535.41677600285402
0.96446195000000 1.47289361000000  96.57249191000000 -535.43477690875693
0.96446195000000 1.48364727000000  91.40971687000000 -535.43222008113901
0.96446195000000 1.93755577000000  80.98983577000000 -535.45001302698802
0.86692279000000 1.92672954000000 103.00000000000000 -535.44352297268199
0.96446195000000 1.96771878000000  98.27576206000001 -535.45195280691496
1.25404758000000 1.73928089000000 103.00000000000000 -535.42932421340299
0.96446195000000 1.80112225000000 100.26871851999999 -535.46773941098297
1.01509368000000 1.67091999000000 103.00000000000000 -535.46975761078602
1.51929600000000 1.65787686000000 103.00000000000000 -535.37711136295900
0.96446195000000 1.77379974000000 124.71406111000000 -535.45482568479895
0.96446195000000 1.67031315000000  61.83126557000000 -535.40948474719903
0.96446195000000 1.75458264000000 124.76749725000001 -535.45620771164295
0.89819761000000 1.68176463000000 103.00000000000000 -535.46728432660598
0.88752179000000 2.02012050000000 103.00000000000000 -535.43733315560996
1.26295374000000 1.68888476000000 120.77317007000001 -535.42000757196297
0.96446195000000 1.57883541000000 111.50218669000000 -535.46521538016896
1.13757876000000 1.68888476000000 114.32876971000000 -535.44946085445099
0.96446195000000 1.77523909000000  99.20799784000000 -535.46935463256796
0.76285922000000 1.68888476000000 133.51303976000000 -535.38723444968696
0.97501152000000 1.68888476000000 111.67145175000000 -535.46980931453197
1.13503111000000 1.68888476000000 105.81038184000001 -535.45331088752800
0.96446195000000 1.63414596000000 124.41907260000001 -535.46027608467796
0.96446195000000 1.68253486000000  96.30706398000000 -535.47057297637002
1.05691082000000 1.48104087000000 103.00000000000000 -535.43642156913904
0.96446195000000 1.98485650000000 113.12652562000000 -535.44351087501104
1.44784138000000 1.68888476000000 109.57858797000000 -535.38963440613497
1.10433493000000 1.68888476000000 109.30462851999999 -535.45759221964704
0.72451313000000 1.80295756000000 103.00000000000000 -535.36716197542898
1.03947351000000 1.47866585000000 103.00000000000000 -535.43764669477116
1.07937662000000 1.80258826000000 103.00000000000000 -535.45824472391098
1.46743546000000 1.60258233000000 103.00000000000000 -535.38350955282101
0.96446195000000 1.72066809000000 109.79502847000001 -535.46994369187496
0.76551601000000 1.74964649000000 103.00000000000000 -535.40947464749900
0.98088807000000 1.58840701000000 103.00000000000000 -535.46627586607497
1.34591273000000 1.78945944000000 103.00000000000000 -535.40761129268003
0.71199303000000 1.80683445000000 103.00000000000000 -535.35211048248095
0.83054555000000 1.68888476000000  77.36215701000000 -535.42590476811404
0.96446195000000 1.78034709000000  71.08887824999999 -535.44350045797000
0.92483566000000 1.63325913000000 103.00000000000000 -535.46897663978598
1.29972301000000 1.68888476000000  83.58325966000000 -535.41050196562696
0.89785519000000 1.68888476000000 100.82686590000000 -535.46707046205302
0.68782040000000 1.68888476000000 108.60489548000000 -535.32497501822399
1.12340839000000 1.68888476000000 110.92876769999999 -535.45375220582002
0.96446195000000 1.51733068000000 113.81482151000000 -535.45444415284203
0.99551762000000 1.68888476000000  87.10408382999999 -535.46342974570803
1.04634305000000 1.68888476000000 118.03492873000000 -535.46063185674302
1.33240978000000 1.68888476000000  88.16272656000000 -535.40787392268317
0.96446195000000 1.61484687000000  81.82902726000000 -535.44998033882996
1.19394698000000 1.68888476000000  76.20874375000000 -535.42248388637495
1.27642551000000 1.47804404000000 103.00000000000000 -535.39624009392605
1.55388969000000 1.59558898000000 103.00000000000000 -535.36803445690396
0.96446195000000 1.58615382000000  94.98534764000000 -535.46216711423199
0.94678736000000 1.88252121000000 103.00000000000000 -535.45976958514098
1.19119411000000 1.83069224000000 103.00000000000000 -535.43666721907516
1.08651010000000 1.68888476000000  99.63712365000001 -535.46129823216404
1.19484992000000 1.68888476000000 131.32176679000000 -535.42200850270297
1.07757265000000 1.68888476000000 143.65326422000001 -535.42421750270796
0.86002811000000 1.68888476000000  77.19145842000000 -535.43593295826304
1.00694046000000 1.68888476000000 109.05052532000001 -535.46945062861403
1.22624283000000 1.68888476000000 102.76532117000001 -535.43589937960996
1.20228197000000 1.68888476000000 128.74629246000001 -535.42380592278403
0.79023347000000 1.46343846000000 103.00000000000000 -535.39441930130499
0.82261984000000 1.64950616000000 103.00000000000000 -535.44511286388399
0.92203621000000 1.68888476000000  75.32935759999999 -535.44428919373900
0.96446195000000 1.91754334000000 119.88517536000001 -535.44558748148199
0.91054512000000 1.68888476000000  76.34349602000000 -535.44488044540401
1.30389179000000 1.69746648000000 103.00000000000000 -535.41972701445604
0.98171363000000 1.57312628000000 103.00000000000000 -535.46423096372598
1.50700680000000 1.68888476000000 109.93658775999999 -535.37866935816396
1.24377018000000 1.65919301000000 103.00000000000000 -535.43177701003299
1.13525888000000 1.68888476000000 110.63419905000001 -535.45180551696501
1.07478975000000 1.68888476000000  77.02182418000000 -535.44284955755097
0.96446195000000 1.61222436000000 123.63466373000000 -535.46029317513398
0.99486500000000 1.68888476000000 116.23256262000000 -535.46638082049799
0.94417770000000 1.68888476000000  88.76703394000000 -535.46522683183503
1.23504977000000 1.68888476000000 111.71984997000000 -535.43191835984203
0.96446195000000 1.76192782000000  96.53468402000000 -535.46961518431692
0.96446195000000 1.89276009000000  90.92126970000000 -535.45904470194398
0.79467897000000 1.77853757000000 103.00000000000000 -535.42761893635202
0.96446195000000 1.89682204000000 109.75960419000000 -535.45579320260197
0.96446195000000 1.78339539000000 112.81368209000000 -535.46469574271396
1.24319277000000 1.50540216000000 103.00000000000000 -535.41110573753895
0.96446195000000 1.49226043000000  93.19195841000000 -535.43781350502297
0.88293247000000 1.68888476000000  99.03567292000000 -535.46403655191102
1.14621531000000 1.68888476000000 139.52698110000000 -535.41940373138800
0.96446195000000 1.61201433000000 103.99679347000000 -535.46911305980598
0.95468824000000 1.68888476000000 130.68134126999999 -535.45258138808197
0.88459580000000 1.68888476000000 113.00037718000000 -535.46221451755798
0.96446195000000 1.75970423000000  78.92331206999999 -535.45585162308805
0.96446195000000 1.74970259000000 100.77724578999999 -535.47066077652505
0.96446195000000 1.78993475000000 106.51376879999999 -535.46732588812097
0.96446195000000 1.99548697000000 107.92491208000000 -535.44550209857096
1.16444671000000 1.68888476000000 104.69128691000000 -535.44805001492091
1.29678077000000 1.68888476000000  86.30409711000000 -535.41374206486398
0.68473591000000 1.68888476000000 132.00311311999999 -535.30110432713604
1.03445064000000 1.72843012000000 103.00000000000000 -535.46760518425401
0.96961179000000 1.68888476000000 100.70626586000000 -535.47186328933401
0.97949607000000 1.68888476000000 106.88161469000001 -535.47139566979297
0.92708169000000 2.07202748000000 103.00000000000000 -535.43681319966004
0.91403477000000 1.68888476000000  83.07752594999999 -535.45630980007900
0.96446195000000 1.81285784000000  88.13460090000000 -535.46356934866492
0.96446195000000 1.53252887000000 101.81958684000000 -535.45671394533292
0.96540094000000 1.68045628000000 103.00000000000000 -535.47200805792897
0.94922495000000 1.68888476000000 104.56931535000000 -535.47175186610400
1.04562055000000 1.86004964000000 103.00000000000000 -535.45773352543904
0.96446195000000 1.61322000000000 110.52883875000001 -535.46858842993095
0.96446195000000 1.71137944000000  66.77774280000000 -535.42983209312695
1.14049940000000 1.68888476000000 120.62437941000000 -535.44414959388700
0.82194825000000 1.68888476000000  78.02768836000000 -535.42342431192799
0.96446195000000 1.61989539000000 109.13684979000000 -535.46937396362296
0.96446195000000 1.81072920000000 114.72192694000000 -535.46111574237295
0.94739416000000 1.67691111000000 103.00000000000000 -535.47170299362699
1.00804138000000 1.68888476000000  78.35205805000000 -535.45124820601598
0.89765733000000 1.66217634000000 103.00000000000000 -535.46693063533201
0.96446195000000 1.54990379000000  89.84228435999999 -535.44990712319895
0.96446195000000 1.74282410000000  66.42199787000000 -535.43174119231003
0.96446195000000 1.71176006000000  87.88867834000000 -535.46551514468194
0.96446195000000 1.79762817000000  75.34017132000000 -535.45074009183497
0.84967277000000 1.43620774000000 103.00000000000000 -535.40952888741117
0.96446195000000 1.94512407000000  93.41312658000000 -535.45446523410897
0.70675829000000 1.68888476000000 132.44763237999999 -535.33139875461291
0.96446195000000 1.86454813000000 116.30419465000000 -535.45462789288695
0.96446195000000 1.55882858000000 109.38484004000000 -535.46295916208999
1.08442268000000 1.68888476000000  90.07667592999999 -535.45710895631396
0.86833686000000 1.77804508000000 103.00000000000000 -535.45791853294804
0.96446195000000 1.82994654000000  82.80594542000000 -535.45867199371799
0.96446195000000 1.49731116000000 107.88848541000000 -535.44978440898296
0.96446195000000 1.63717217000000  57.94344421000000 -535.38759186282698
1.06784118000000 1.47547184000000 103.00000000000000 -535.43308980351696
1.03667274000000 1.70145627000000 103.00000000000000 -535.46790824282004
1.20672951000000 1.68888476000000 114.24704796000000 -535.43630209442097
1.00962093000000 1.58219180000000 103.00000000000000 -535.46397561887602
0.96446195000000 1.45793680000000 109.83791771999999 -535.43711551601996
0.94909996000000 1.81681772000000 103.00000000000000 -535.46593175551504
1.12223731000000 1.68888476000000  86.08624879000000 -535.44766309022316
0.98650032000000 1.68888476000000  88.93873035999999 -535.46553721372698
0.90094246000000 1.68888476000000  74.85675827999999 -535.44051320998699
0.94260630000000 1.68888476000000  97.23211394000000 -535.47054903331400
1.17427150000000 1.68888476000000 125.99180858000000 -535.43245252509405
0.96446195000000 1.69655907000000 102.38050207000001 -535.47201345286703
1.12654958000000 1.69143785000000 103.00000000000000 -535.45508236159503
0.92621552000000 1.84971912000000 103.00000000000000 -535.46168179322297
0.95745945000000 1.98445482000000 103.00000000000000 -535.44881973779604
0.96446195000000 1.86760330000000  77.89074191000000 -535.45191180416498
1.10190522000000 1.86806760000000 103.00000000000000 -535.44941185147297
1.13241962000000 1.79233598000000 103.00000000000000 -535.45047809297796
0.89133669000000 1.84064458000000 103.00000000000000 -535.45791113953999
0.96446195000000 1.70503582000000 110.05531596000000 -535.47032049781706
0.82680796000000 1.78320824000000 103.00000000000000 -535.44358373082491
1.04201260000000 1.78075509000000 103.00000000000000 -535.46438000824401
0.96446195000000 1.90295033000000  84.06827835999999 -535.45492797956297
0.92230448000000 1.82847971000000 103.00000000000000 -535.46324114075196
1.14236015000000 1.61078234000000 103.00000000000000 -535.44888683083104
1.08008947000000 1.85992539000000 103.00000000000000 -535.45341367081403
0.96446195000000 1.83735090000000 108.76664316999999 -535.46239092549797
0.96446195000000 1.72486428000000  59.43940575000000 -535.41013609746301
1.04624929000000 1.69739362000000 103.00000000000000 -535.46689375453798
0.96446195000000 1.64861409000000 111.87344480000000 -535.46968509044495
0.87919880000000 1.68888476000000 110.78119056000000 -535.46217770209796
0.96412263000000 1.58660182000000 103.00000000000000 -535.46633959221117
1.08611798000000 1.68888476000000  63.75241170000000 -535.41424952177204
0.98811007000000 1.68888476000000 121.86709729000000 -535.46200307091203
0.98902819000000 1.70560176000000 103.00000000000000 -535.47140409610699
0.96446195000000 1.89017303000000 108.33223017000000 -535.45728784985295
0.96446195000000 1.79189008000000 100.04869604000000 -535.46836987986205
1.40351082000000 1.68888476000000  92.66382843000000 -535.39629580801397
0.99848838000000 1.79845409000000 103.00000000000000 -535.46675352735201
1.01878722000000 1.68888476000000 126.84573996000000 -535.45477234254599
1.07459714000000 1.84216124000000 103.00000000000000 -535.45576726466595
0.85249419000000 1.62205597000000 103.00000000000000 -535.45481371249002
0.96446195000000 1.72444112000000 103.20606282000000 -535.47149474979517
1.00463704000000 1.68062023000000 103.00000000000000 -535.47064062182403
1.19673052000000 1.68888476000000  87.62382529999999 -535.43540212543701
0.96446195000000 1.93655078000000 122.72030497999999 -535.44054480679995
1.36999468000000 1.68888476000000 114.95469292999999 -535.40246590908805
0.84848609000000 1.63389818000000 103.00000000000000 -535.45427011079596
1.34589068000000 1.68888476000000  89.56888590000000 -535.40613420271495
1.05163338000000 1.68888476000000  95.18476367000000 -535.46456634855804
0.96446195000000 1.64434072000000 125.12933864000000 -535.45970802900297
1.13445689000000 1.63378895000000 103.00000000000000 -535.45201577620401
1.07651699000000 1.68888476000000  82.00137447000000 -535.44989045337798
1.25333330000000 1.78616953000000 103.00000000000000 -535.42720261137401
0.87802843000000 1.68888476000000 109.61425027000000 -535.46238197980006
1.08451071000000 1.85646757000000 103.00000000000000 -535.45310145338101
1.13133896000000 1.67747940000000 103.00000000000000 -535.45414140847299
1.06556981000000 1.68888476000000 121.38153534999999 -535.45534848792897
0.96446195000000 1.51771113000000 116.63253236000000 -535.45353607438096
0.99593678000000 1.51680552000000 103.00000000000000 -535.45257425912700
0.90868082000000 2.00156239000000 103.00000000000000 -535.44308111418900
0.96446195000000 1.59301542000000 129.18693825000000 -535.45348805302001
1.06964812000000 1.68888476000000 104.58515432000000 -535.46388062507197
0.88956023000000 1.76569518000000 103.00000000000000 -535.46333202648600
0.92791619000000 1.68888476000000 109.70289256000000 -535.46945381012597
0.96446195000000 1.57193490000000 138.06073185000000 -535.44092453561996
1.48441239000000 1.70846417000000 103.00000000000000 -535.38345297989702
0.96446195000000 1.87347481000000  81.34676414000000 -535.45496390575397
0.96446195000000 1.67942134000000  74.27739269999999 -535.44383708951295
0.96446195000000 1.80018490000000 121.73269302000000 -535.45582431320304
1.42054179000000 1.65448823000000 103.00000000000000 -535.39536829840404
1.21745975000000 1.68888476000000 117.68008580000000 -535.43180961472603
0.93125067000000 1.52469471000000 103.00000000000000 -535.45447732908701
1.20551955000000 1.55196415000000 103.00000000000000 -535.42902156085597
0.86109584000000 1.68888476000000 106.39046390999999 -535.45907865849699
0.90705656000000 1.68888476000000  99.28222975000000 -535.46809834472799
0.96446195000000 1.60286644000000 107.65300938000000 -535.46834768032602
0.96446195000000 1.79536341000000  79.57980884000000 -535.45646784712892
0.96446195000000 1.86923062000000  89.02850415000000 -535.46030686561198
1.10973885000000 1.68888476000000 111.85080001000000 -535.45562226713901
0.82912640000000 1.95618218000000 103.00000000000000 -535.42722907146003
1.18276080000000 1.68888476000000 118.70294410000000 -535.43787835110095
0.82361064000000 1.73688562000000 103.00000000000000 -535.44487053548596
0.96446195000000 1.80012682000000 110.12078604000000 -535.46495612542901
1.13725617000000 1.68888476000000  65.77221504000001 -535.41309971651503
1.20695272000000 1.68888476000000 123.32142037000000 -535.42892137068895
1.10674786000000 1.95444840000000 103.00000000000000 -535.43971915618101
0.95208293000000 1.68888476000000 137.71099498000001 -535.44287738874800
0.86293383000000 1.91843779000000 103.00000000000000 -535.44336780232402
0.96446195000000 1.53833751000000 128.06219781999999 -535.44889066942198
0.96446195000000 1.76506566000000 124.26591041000000 -535.45600137501299
0.96446195000000 1.85547200000000 110.88065852000000 -535.45946599309195
0.99187245000000 1.68888476000000  85.89964491000001 -535.46231482763199
0.94814726000000 1.66737313000000 103.00000000000000 -535.47158163220502
1.18891749000000 1.68888476000000 109.75921092000000 -535.44204983979796
0.88201163000000 1.64583640000000 103.00000000000000 -535.46360409147997
1.17003312000000 1.55727363000000 103.00000000000000 -535.43687762957495
0.96446195000000 1.60180264000000  91.69355075000000 -535.46141859622298
0.96446195000000 1.57982887000000 117.87489797000001 -535.46244612338717
1.15521930000000 1.68888476000000 122.73178436000001 -535.43947149158805
1.02408287000000 1.53988003000000 103.00000000000000 -535.45575297338405
1.10154522000000 1.83491565000000 103.00000000000000 -535.45242350330795
0.96446195000000 1.70293918000000  62.96851716000000 -535.41825471429604
0.99464972000000 1.65854487000000 103.00000000000000 -535.47079283429605
0.80966531000000 1.67305368000000 103.00000000000000 -535.43949385427402
0.83012804000000 1.71477944000000 103.00000000000000 -535.44840864608716
0.77695441000000 1.66523408000000 103.00000000000000 -535.41983012336004
1.10735148000000 1.70034079000000 103.00000000000000 -535.45829214004300
0.96446195000000 1.87630273000000 103.12445382000000 -535.46077579534096
0.96480764000000 1.48120843000000 103.00000000000000 -535.44306427074798
0.96446195000000 1.62583713000000 113.75434737000000 -535.46804366243202
1.02322956000000 1.68888476000000 118.20984879000000 -535.46286714012797
0.94784180000000 1.88382915000000 103.00000000000000 -535.45967825457399
0.93775425000000 1.68888476000000  82.24110180000000 -535.45728962048599
1.23807889000000 1.68888476000000 104.20293495000000 -535.43340203473804
1.04916275000000 1.68888476000000 102.95286985000000 -535.46657147677900
0.96446195000000 1.79638654000000  97.55789935000000 -535.46795818560497
0.96446195000000 1.70810911000000  85.35777655000000 -535.46290593488698
0.96446195000000 1.82878018000000  79.90477287000000 -535.45585615517200
0.96446195000000 1.83293029000000  80.00919184999999 -535.45580126590801
0.90231321000000 1.68702371000000 103.00000000000000 -535.46790765308197
0.97013558000000 1.68888476000000 125.66306677999999 -535.45858383784491
0.92098840000000 1.55808027000000 103.00000000000000 -535.46040297853904
0.90990751000000 1.60510396000000 103.00000000000000 -535.46536162064797
0.89203417000000 2.04443712000000 103.00000000000000 -535.43529704987498
1.03044163000000 1.68888476000000  87.42983550000000 -535.46130080991691
0.96446195000000 2.09003578000000  86.45035894999999 -535.43768510744803
0.82990468000000 1.68888476000000 115.05841893000000 -535.44494314504595
0.96446195000000 1.72277198000000 108.61108022000001 -535.47033655908399
1.30789198000000 1.81292626000000 103.00000000000000 -535.41397707321096
1.07157079000000 1.68888476000000 129.36888078999999 -535.44576872043001
0.95283071000000 1.68888476000000  90.20975154000000 -535.46679093771104
0.96446195000000 1.93280835000000 115.50485363999999 -535.44775255448906
0.96446195000000 1.62862722000000  78.35143223999999 -535.44569385224497
0.93666589000000 1.68888476000000  90.76011059000000 -535.46654366917198
1.26959530000000 1.64522099000000 103.00000000000000 -535.42587684049499
1.00313371000000 1.68888476000000  66.28779036000000 -535.42608133773297
0.96446195000000 1.71357652000000 143.10698439000001 -535.43346138435800
0.96446195000000 1.93494422000000 127.61888414000001 -535.43511407573999
0.84361890000000 1.69430293000000 103.00000000000000 -535.45386816590701
0.84797738000000 1.70117844000000 103.00000000000000 -535.45525854013101
0.96446195000000 1.92505993000000  96.67766056000001 -535.45670365911803
1.09096235000000 1.68888476000000  59.89608213000000 -535.40345164082601
0.93479225000000 1.68888476000000  76.08930079000000 -535.44692570215398
0.96446195000000 1.73295471000000 118.49456410000001 -535.46377042939196
0.87524337000000 1.85475531000000 103.00000000000000 -535.45323882876698
1.19471953000000 1.68888476000000 117.19126835000000 -535.43671194952901
0.96446195000000 1.51634616000000  98.75516433000000 -535.45087168976499
0.96446195000000 1.53673810000000 110.96638235000000 -535.45900822519297
1.18828044000000 1.77081449000000 103.00000000000000 -535.44131269240302
0.96446195000000 1.56822583000000  73.78311990000000 -535.42272628750095
0.96446195000000 1.63187267000000 102.34918551000000 -535.47032402472598
0.96446195000000 1.58600449000000 109.13181784000000 -535.46651630941199
1.09780835000000 1.70672681000000 103.00000000000000 -535.45975737389301
1.04461365000000 1.77743891000000 103.00000000000000 -535.46429784880002
0.96446195000000 1.96240096000000 102.46064690000000 -535.45164551664698
1.00452502000000 1.68888476000000 110.96963456000000 -535.46885357160295
1.09888987000000 1.68888476000000 124.36842253000000 -535.44750721227297
1.04024066000000 1.66127760000000 103.00000000000000 -535.46716336548400
1.44655322000000 1.68195309000000 103.00000000000000 -535.39079740434704
0.96446195000000 1.52932738000000  92.74283651000000 -535.44848999735291
1.20445158000000 1.68888476000000 102.75297270000000 -535.44032549422298
0.96446195000000 1.67452329000000 102.62611898999999 -535.47193153485296
1.08172657000000 1.52051213000000 103.00000000000000 -535.44444762465798
0.96446195000000 1.78604378000000 116.37354800999999 -535.46192249653097
0.96446195000000 1.73055166000000 119.66873750000001 -535.46287218071802
0.96446195000000 1.77609634000000 110.00136829000000 -535.46683658866004
1.05383262000000 1.95621452000000 103.00000000000000 -535.44681814097692
0.98371373000000 1.86331139000000 103.00000000000000 -535.46186306743903
1.02507488000000 1.54028714000000 103.00000000000000 -535.45574452329697
1.10887389000000 1.68888476000000  68.92823516999999 -535.42348503435301
1.08152696000000 1.68888476000000 106.03090902000000 -535.46199758012199
0.88140468000000 1.66055778000000 103.00000000000000 -535.46396147115195
0.96446195000000 1.66212846000000 141.74112255000000 -535.43783949508600
1.00154365000000 1.68888476000000  88.48204079000000 -535.46445023058595
0.96446195000000 1.68880056000000 128.85731632000000 -535.45491833199605
0.90735530000000 1.74478330000000 103.00000000000000 -535.46721481356099
1.29751602000000 1.61109486000000 103.00000000000000 -535.41785283348497
1.02183922000000 1.68888476000000 136.38766763000001 -535.44200261015999
0.96446195000000 1.71200415000000  72.66406864000000 -535.44338509351701
0.84383160000000 1.73583738000000 103.00000000000000 -535.45285433187598
1.17594994000000 1.68888476000000 104.86069578000000 -535.44582252565692
0.96446195000000 1.73636046000000  79.18717203999999 -535.45585063197404
1.11429671000000 1.94468005000000 103.00000000000000 -535.43958294357196
0.96446195000000 1.57938412000000  90.81817221000000 -535.45705021783795
1.03818917000000 1.59228187000000 103.00000000000000 -535.46261306855502
0.96446195000000 1.64918894000000  59.73430300000000 -535.39767725264892
0.96446195000000 1.84510091000000 106.46530762000000 -535.46269478393197
0.78060785000000 1.89382411000000 103.00000000000000 -535.40787342683598
0.96446195000000 1.81052381000000  72.27832029000000 -535.44587430785998
1.06044084000000 1.68888476000000  80.52528286000000 -535.44990719774000
1.11038088000000 1.68888476000000  97.62412643000000 -535.45707852652890
1.04955943000000 1.68888476000000 133.00272154000001 -535.44385677610501
1.12261376000000 1.68888476000000  62.28822706000000 -535.40687266946600
0.98656616000000 1.68888476000000 139.63161557999999 -535.43957102311197
0.96446195000000 1.63298294000000  80.51265234000000 -535.45028826957400
0.87734865000000 1.68888476000000 113.54300191999999 -535.46041769220005
0.96446195000000 1.70750182000000  95.52124037999999 -535.47049750437600
0.96446195000000 1.71894771000000  83.46547319000000 -535.46103449533405
0.92588376000000 1.68888476000000 113.99550488000000 -535.46722409790300
1.03713820000000 1.68176541000000 103.00000000000000 -535.46786867106300
0.99497724000000 1.68888476000000 116.63948624000000 -535.46608402318805
0.99221450000000 1.80433629000000 103.00000000000000 -535.46662554460102
0.91956849000000 1.83397104000000 103.00000000000000 -535.46248936540303
1.07189898000000 1.68888476000000  89.61168237000000 -535.45849075762396
0.96446195000000 1.74497714000000  79.53035644000001 -535.45651163109301
0.95136196000000 1.68888476000000  60.14291241000000 -535.40615981780797
0.96446195000000 1.84546671000000  80.94312226000000 -535.45617566265298
0.96446195000000 1.97003364000000  90.34502268999999 -535.45136913317504
0.96446195000000 1.84915404000000 106.27453353000000 -535.46238627252717
0.87774720000000 1.68888476000000 112.72279263000000 -535.46094925990599
0.99718283000000 1.68888476000000  58.05275774000000 -535.40078410733997
0.96850555000000 1.64283311000000 103.00000000000000 -535.47098321774899
0.96446195000000 1.82187263000000  78.51623054000000 -535.45452244326100
0.95373825000000 1.77986304000000 103.00000000000000 -535.46875523757899
1.32622663000000 1.69460302000000 103.00000000000000 -535.41506990403400
0.96446195000000 1.61887339000000 112.41408896000000 -535.46828544979599
0.84968973000000 1.76072815000000 103.00000000000000 -535.45359008969001
1.02474412000000 1.94477476000000 103.00000000000000 -535.45100158658397
0.96446195000000 1.68190204000000  82.30417121000001 -535.45788098105197
1.20909114000000 1.68888476000000 110.97941963000000 -535.43753072681693
1.07092143000000 1.68888476000000  69.12629941000000 -535.42836108293000
0.89720792000000 1.58227534000000 103.00000000000000 -535.46110602321005
1.09602483000000 1.68888476000000 124.72654005000000 -535.44757297871899
1.20554706000000 1.68888476000000  95.08721688999999 -535.43848783847795
0.96446195000000 1.40986273000000 112.72121832000001 -535.41580270294492
1.16429794000000 1.78499438000000 103.00000000000000 -535.44512643843598
0.96446195000000 2.11022163000000  85.06601947000000 -535.43519556827800
1.05324011000000 1.66007393000000 103.00000000000000 -535.46563119601001
1.31832276000000 1.55126685000000 103.00000000000000 -535.40594667640801
0.96446195000000 1.74193353000000  85.94300398999999 -535.46393056793397
0.95341799000000 2.00893966000000 103.00000000000000 -535.44584466735103
0.96446195000000 1.77005331000000 121.85072882000000 -535.45818824113496
0.84254157000000 1.66364175000000 103.00000000000000 -535.45334464269695
1.24899587000000 1.68793827000000 103.00000000000000 -535.43119787608805
1.10880558000000 1.68888476000000  71.97857528000000 -535.42948934162496
0.96446195000000 1.81896323000000  79.86234232000000 -535.45616664593194
0.83495172000000 1.68888476000000 114.51381997999999 -535.44726771954595
0.91360438000000 1.68888476000000  84.29745443000000 -535.45786413083999
1.08630361000000 1.75190113000000 103.00000000000000 -535.46020600914005
0.95460688000000 1.68888476000000 105.33803371000000 -535.47179461153405
0.96446195000000 1.56409186000000 105.92626605000000 -535.46375806457502
0.96446195000000 1.66574042000000 129.09400209000000 -535.45519125036105
0.96446195000000 1.53898896000000  88.39560753000001 -535.44518767712395
1.19980568000000 1.87066895000000 103.00000000000000 -535.43148091023397
1.54436442000000 1.65582077000000 103.00000000000000 -535.37275818817693
0.83790300000000 1.69212330000000 103.00000000000000 -535.45183289360398
0.88127084000000 1.68888476000000  89.29797040000000 -535.45804272786302
1.20854771000000 1.68888476000000  88.61498563000001 -535.43388342898595
1.04594156000000 1.68888476000000 126.08294728000000 -535.45291823547291
0.97334869000000 1.68888476000000 125.57516431000001 -535.45863107314597
1.25824286000000 1.82157755000000 103.00000000000000 -535.42373455295399
0.87764237000000 1.68888476000000 107.49701803000001 -535.46293730049899
0.98214011000000 1.68888476000000  84.40610436999999 -535.46089885927995
0.83099766000000 1.90404126000000 103.00000000000000 -535.43399649770004
0.75731597000000 1.68888476000000 118.35405641000000 -535.39890076279517
1.11573811000000 1.70980930000000 103.00000000000000 -535.45680563622091
1.30935791000000 1.68888476000000  86.37384495000001 -535.41117761256498
0.86013407000000 1.68888476000000  85.04514593000000 -535.44820887764797
1.10143434000000 1.79956256000000 103.00000000000000 -535.45515736313598
1.28222941000000 1.68888476000000 103.53516181000001 -535.42425388435197
0.90402115000000 1.68888476000000 119.16220668000000 -535.46118910308996
0.88506124000000 1.68888476000000 108.71843042000000 -535.46412798261395
0.96446195000000 1.57091191000000  79.20196692000000 -535.43639325074901
0.96446195000000 1.87096749000000  94.99044652000001 -535.46187651160096
1.26953612000000 1.68888476000000  94.51502145000001 -535.42505259248401
0.92953400000000 1.94643442000000 103.00000000000000 -535.45177239649001
1.06386579000000 1.82650901000000 103.00000000000000 -535.45850433758199
0.96446195000000 1.57650367000000 103.58779219000000 -535.46516428583095
0.96585357000000 1.56968693000000 103.00000000000000 -535.46403172813405
1.10189533000000 1.68888476000000 100.12129280000001 -535.45900595700300
1.06670487000000 1.57068197000000 103.00000000000000 -535.45630517027098
1.09370903000000 1.64778125000000 103.00000000000000 -535.45955013556295
0.89015336000000 1.90043741000000 103.00000000000000 -535.45167630190701
1.30694386000000 1.51257259000000 103.00000000000000 -535.40010803978203
0.96446195000000 1.91930210000000  97.37656106000000 -535.45728070124096
0.85560633000000 1.54030268000000 103.00000000000000 -535.44509477327301
1.19564023000000 1.68888476000000 123.80736150000000 -535.43066031211401
1.10848280000000 1.75940265000000 103.00000000000000 -535.45641113970498
1.19890790000000 1.64587300000000 103.00000000000000 -535.44039973660892
1.22196343000000 1.68888476000000  77.35231272000000 -535.41879103102303
1.09741815000000 1.68888476000000 114.51303894999999 -535.45611398971903
0.96446195000000 1.72818070000000 144.01835342000001 -535.43105033060704
0.96446195000000 1.69019247000000 122.51137740999999 -535.46187790257397
1.05930012000000 1.68888476000000 124.34191075000000 -535.45320382741602
0.96446195000000 1.73805227000000  99.08558058000000 -535.47096805801698
1.05906546000000 1.68888476000000 107.31272853999999 -535.46478126183695
1.01143953000000 1.68888476000000  91.16999074000000 -535.46603211711692
0.84728973000000 1.68888476000000  71.81765965000000 -535.42039287150203
1.09469203000000 1.68888476000000 123.08464467000000 -535.44949072262295
0.96248277000000 1.95343934000000 103.00000000000000 -535.45247836889996
1.18977782000000 1.51906224000000 103.00000000000000 -535.42521047128298
0.87488681000000 1.67550658000000 103.00000000000000 -535.46280101699904
0.96446195000000 1.87167154000000 100.85155288000000 -535.46172050444602
0.96446195000000 1.91181299000000  97.60510533000000 -535.45804434592901
1.08513834000000 1.86714605000000 103.00000000000000 -535.45202060387601
1.10769901000000 1.81308031000000 103.00000000000000 -535.45318228791098
0.96446195000000 1.74905589000000  89.85520080000001 -535.46701331214899
1.32666918000000 1.68888476000000  87.90553018000000 -535.40886537902804
0.84136178000000 1.68888476000000  83.14187533000000 -535.43960641014598
1.04202770000000 1.91333973000000 103.00000000000000 -535.45278751212197
0.80759458000000 1.68888476000000 120.21257387999999 -535.43084679155197
1.16821239000000 1.68888476000000  84.51210608000000 -535.43788148323597
0.97222654000000 1.68888476000000 113.26162730000000 -535.46903208038805
0.96446195000000 1.80738903000000  73.33687184999999 -535.44760397559605
0.96446195000000 1.82937228000000 104.58624569000000 -535.46477438954696
1.04228098000000 1.68888476000000 114.19090690000000 -535.46378644872595
1.16196380000000 1.68888476000000 125.89395847000000 -535.43488616501497
0.96446195000000 1.64190051000000  65.61575915000000 -535.41629117603395
0.86998495000000 1.68888476000000  99.64728191000000 -535.46128078792799
0.96446195000000 1.66742103000000 106.26100245000001 -535.47165309881098
1.12329372000000 1.68888476000000  88.97995353000000 -535.45011575693900
0.96446195000000 1.87241752000000  92.71039564000000 -535.46131958824799
0.85174803000000 1.72305444000000 103.00000000000000 -535.45595272547916
1.07833096000000 2.03010774000000 103.00000000000000 -535.43531097212497
0.96446195000000 1.75151986000000 107.22515186000000 -535.46952440329596
0.98270969000000 1.68888476000000  55.07220166000000 -535.38878233564401
0.96446195000000 1.71314233000000  67.47194066000000 -535.43176165911404
0.93791510000000 1.72263815000000 103.00000000000000 -535.47083962093404
0.96446195000000 1.74653523000000  77.32299492999999 -535.45332944331301
0.96446195000000 1.61829040000000  86.43101772999999 -535.45747105820999
0.96446195000000 1.70052399000000 138.48637013999999 -535.44128960776197
1.12263222000000 1.91599775000000 103.00000000000000 -535.44127207423298
1.06196069000000 1.68888476000000 100.48939747000000 -535.46484586680594
0.96446195000000 1.65502998000000  99.50586244000000 -535.47086829765692
0.96446195000000 1.70278745000000 108.81795525000000 -535.47084849560099
0.96446195000000 1.61590463000000  90.50988961000000 -535.46199417533001
0.81335053000000 1.68888476000000  75.85590983000000 -535.41512903313298
1.12868629000000 1.68888476000000  88.14737823999999 -535.44849475425201
1.11328100000000 1.75389913000000 103.00000000000000 -535.45588041345900
0.76088120000000 1.57421729000000 103.00000000000000 -535.40139253678399
1.02427979000000 1.69367216000000 103.00000000000000 -535.46915475103799
0.95323920000000 1.68888476000000 130.01007458000001 -535.45340618998898
1.06939898000000 1.68888476000000 113.02190184000000 -535.46110648332092
1.24113868000000 1.68888476000000  92.98380285000000 -535.43019377687904
1.19356212000000 1.77806571000000 103.00000000000000 -535.43986731412804
0.75874094000000 1.73562793000000 103.00000000000000 -535.40473443171800
0.92118052000000 1.83629484000000 103.00000000000000 -535.46244469653800
0.96446195000000 1.52333449000000  83.26500565000001 -535.43170485039400
1.20210188000000 1.55640554000000 103.00000000000000 -535.43047777091999
0.96446195000000 1.66332821000000 106.58684237000000 -535.47153878620804
0.96446195000000 1.67751262000000  65.07571185000000 -535.42085524374500
0.96446195000000 1.58274031000000 136.87517631000000 -535.44331889296700
0.96446195000000 1.75629947000000  93.59112258000000 -535.46886307792897
0.83081465000000 1.72951793000000 103.00000000000000 -535.44820896214105
1.14988262000000 1.81463607000000 103.00000000000000 -535.44578025010298
1.05617626000000 1.89449357000000 103.00000000000000 -535.45316399039802
0.88261661000000 1.79231743000000 103.00000000000000 -535.46022310428100
0.96446195000000 1.84181835000000 125.56292558000000 -535.44763325629197
0.93028622000000 1.44791845000000 103.00000000000000 -535.42924444398795
1.47726584000000 1.68490912000000 103.00000000000000 -535.38499572638000
0.94382710000000 1.68888476000000 103.26907181000000 -535.47162854594092
1.45842044000000 1.58457748000000 103.00000000000000 -535.38339120250896
0.96446195000000 1.90468243000000  74.33673593000000 -535.44587600251498
0.96446195000000 1.72899713000000 106.42144632000000 -535.47079422726995
1.14452138000000 1.68888476000000  97.86082709999999 -535.45122032553502
1.15379119000000 1.68888476000000 104.40590561000000 -535.45008429604002
1.28488280000000 1.75316583000000 103.00000000000000 -535.42233373842896
0.71141396000000 1.76256557000000 103.00000000000000 -535.35479932244505
0.96446195000000 1.72306670000000 109.72556063000000 -535.46988341411497
0.80543774000000 1.68888476000000  97.86205031999999 -535.43636152326405
1.10625626000000 1.55216668000000 103.00000000000000 -535.44734603435495
1.01996096000000 1.48534347000000 103.00000000000000 -535.44178642205202
0.74792095000000 1.86714895000000 103.00000000000000 -535.38470835846101
0.96446195000000 1.69829993000000  73.76953220000000 -535.44454651104797
1.07343656000000 1.47239669000000 103.00000000000000 -535.43123501293496
1.09267797000000 1.68888476000000 132.81949476000000 -535.43819113115103
1.26678070000000 1.48629015000000 103.00000000000000 -535.40081889041301
1.17986171000000 1.68888476000000 127.87125109000000 -535.42921613303099
1.29173850000000 1.84181016000000 103.00000000000000 -535.41510513432195
1.19514679000000 1.74881132000000 103.00000000000000 -535.44099683573199
0.96446195000000 1.72355825000000  99.02784350000000 -535.47133914381402
0.96446195000000 1.63284822000000 131.52974909000000 -535.45222976008597
0.99875037000000 1.68888476000000 122.69170837000000 -535.46066797990500
0.96446195000000 1.77765698000000 110.28856276000000 -535.46658026601699
0.96446195000000 1.79127350000000 121.60909499000000 -535.45672229761999
1.03624830000000 1.79584290000000 103.00000000000000 -535.46399333957902
1.17009170000000 1.68612089000000 103.00000000000000 -535.44707120260796
0.99273860000000 1.68888476000000 115.38426620000000 -535.46706889770599
1.01655854000000 1.46837618000000 103.00000000000000 -535.43615063963296
0.96446195000000 1.77081793000000 123.32811751000000 -535.45658502389097
0.96446195000000 1.60766069000000  63.80148143000000 -535.40247255734096
1.04986770000000 1.40471485000000 103.00000000000000 -535.40292199182898
0.94416665000000 2.02401103000000 103.00000000000000 -535.44368938498701
1.04198618000000 1.62614999000000 103.00000000000000 -535.46528572464297
0.96446195000000 1.64410240000000  68.31708651000000 -535.42462125186796
0.96446195000000 1.84281086000000  71.26007156999999 -535.44388108693204
1.12219170000000 1.81763947000000 103.00000000000000 -535.45043940817595
1.13190548000000 1.94037593000000 103.00000000000000 -535.43710295965195
0.79633710000000 1.61386003000000 103.00000000000000 -535.42985607027401
0.96446195000000 1.89634363000000 114.25174619000001 -535.45284351877797
0.96446195000000 1.84448543000000  77.02923817999999 -535.45194999193097
0.96446195000000 1.57793828000000 108.37071361000000 -535.46567382003298
0.96446195000000 1.56516920000000  72.08588235000001 -535.41720245926001
0.96446195000000 2.09039881000000  87.50061005000001 -535.43787634564899
1.06921171000000 1.68888476000000 145.91467517000001 -535.42174774420096
1.11101581000000 1.82554245000000 103.00000000000000 -535.45167754989495
0.98128314000000 2.03696812000000 103.00000000000000 -535.44269375617296
1.11869325000000 1.68888476000000  82.08437139000000 -535.44375112413297
1.19749761000000 1.68137166000000 103.00000000000000 -535.44166266488401
1.17123137000000 1.54007766000000 103.00000000000000 -535.43345181960603
0.96446195000000 1.74355162000000 124.44902116999999 -535.45730806200402
0.96446195000000 1.82446708000000 107.66513664000000 -535.46407860678801
1.00317187000000 1.68888476000000 104.03323208000000 -535.47073662414505
0.89972453000000 1.82666589000000 103.00000000000000 -535.46057531427300
0.96446195000000 1.84638004000000  73.39419085000000 -535.44705477374498
0.91781922000000 1.77619822000000 103.00000000000000 -535.46674100433495
0.86508860000000 1.40056999000000 103.00000000000000 -535.39489161833399
1.11204216000000 1.86143867000000 103.00000000000000 -535.44841198387996
1.07896460000000 1.82824679000000 103.00000000000000 -535.45633579511298
1.17051460000000 1.68888476000000 128.07286690000001 -535.43075758924999
1.18365091000000 1.76894644000000 103.00000000000000 -535.44231979739197
0.96446195000000 1.70705381000000  91.67397994000000 -535.46842073556900
0.96446195000000 1.87136648000000 114.49063327000000 -535.45535793090596
0.87668594000000 1.68888476000000 104.93861683999999 -535.46316566075097
0.96446195000000 1.62493190000000 104.01424880000000 -535.47007945386702
0.96446195000000 1.69637308000000  85.49490689000000 -535.46266259554295
1.31621898000000 1.68888476000000  94.13376402000000 -535.41508136207699
1.38188282000000 1.55961941000000 103.00000000000000 -535.39461540841501
1.24413182000000 1.68888476000000 111.63474370000000 -535.43009292765498
0.96446195000000 1.79771528000000  73.11766201000000 -535.44726366106897
1.05485060000000 1.42551501000000 103.00000000000000 -535.41356406580803
0.96446195000000 1.89372673000000 101.98520024000000 -535.45929104256697
0.97797367000000 1.67278413000000 103.00000000000000 -535.47175129868299
0.96446195000000 1.52283414000000 101.94511987999999 -535.45452140473606
1.00540346000000 1.92284630000000 103.00000000000000 -535.45479451469998
0.90099346000000 1.69267000000000 103.00000000000000 -535.46769893857697
0.96446195000000 1.67112579000000  94.81236081999999 -535.46951430794491
1.09226830000000 1.68888476000000 104.51353899000000 -535.46061029879900
0.93883788000000 1.92961770000000 103.00000000000000 -535.45432510766500
0.96446195000000 1.82071889000000  99.51863650000000 -535.46631812914700
0.96446195000000 1.60574304000000 102.55102929000000 -535.46831984553603
0.99192657000000 1.68888476000000  90.80745724000001 -535.46687512107803
0.96446195000000 1.65474845000000  95.67536598000000 -535.46926707947205
0.96446195000000 1.64862796000000 124.96762015000000 -535.45990748356803
0.76187528000000 1.68888476000000  64.72812482000001 -535.35297676827497
0.97606009000000 1.73055422000000 103.00000000000000 -535.47121260695803
0.96446195000000 1.94067014000000  81.20851911000000 -535.44991665883697
1.07083683000000 1.68888476000000  97.90161885000001 -535.46312922011896
0.96446195000000 1.92921156000000 117.92091462000000 -535.44609949399705
0.96446195000000 1.65651281000000  95.90757142000000 -535.46947968922905
1.36352117000000 1.68888476000000 102.81440520000000 -535.40735421455395
1.07754552000000 1.68888476000000 111.97914349000000 -535.46051967749293
0.96446195000000 1.53601932000000  88.58016257000000 -535.44468615609503
0.87030010000000 1.68888476000000 109.48777649000000 -535.46064885701003
1.07030822000000 1.72549119000000 103.00000000000000 -535.46342083069896
0.87838159000000 1.62466075000000 103.00000000000000 -535.46171532111998
0.96446195000000 1.57348067000000  79.18256104000000 -535.43695810736801
1.00981251000000 1.68888476000000  93.75134251000000 -535.46781165806203
0.96446195000000 1.86417389000000  95.94948581000000 -535.46258606128401
1.43961231000000 1.79426042000000 103.00000000000000 -535.38826095847116
1.07503483000000 2.04029921000000 103.00000000000000 -535.43457759930493
1.06929095000000 1.62488030000000 103.00000000000000 -535.46180839803401
1.08395025000000 1.48250775000000 103.00000000000000 -535.43323314072404
0.84595900000000 1.94857979000000 103.00000000000000 -535.43459237027196
0.69428534000000 1.51511273000000 103.00000000000000 -535.31814170470398
0.96446195000000 1.72108496000000  99.58487088000000 -535.47147374562701
0.96446195000000 1.80711507000000 124.04118440000001 -535.45272845145291
0.88074000000000 1.68888476000000  77.51038728000000 -535.44182415973000
0.96446195000000 1.81967267000000 108.97705413000000 -535.46389051466701
0.97968284000000 1.68888476000000  64.51666924000000 -535.42131978228701
1.34057799000000 1.68888476000000 113.35669122000000 -535.40931144045396
0.96446195000000 1.68492681000000 125.29683009000000 -535.45914212984997
0.94490586000000 1.84532093000000 103.00000000000000 -535.46330194777101
0.99710915000000 1.68888476000000 113.12783254000000 -535.46821958129897
1.35842899000000 1.79603111000000 103.00000000000000 -535.40458785729197
0.84756893000000 2.01047779000000 103.00000000000000 -535.42777827529801
0.85853236000000 1.95137558000000 103.00000000000000 -535.43832306191598
1.07538337000000 1.68888476000000 109.63418827000000 -535.46185749428400
1.09537676000000 1.69633052000000 103.00000000000000 -535.46021830000200
1.21603243000000 1.68888476000000  90.08769393999999 -535.43349916450302
0.90434404000000 1.91472975000000 103.00000000000000 -535.45247925269291
0.96446195000000 1.45470390000000  91.77225149000000 -535.42069973661398
0.99736405000000 1.68888476000000  99.25041417000000 -535.47071689528298
0.96446195000000 1.81200248000000 116.58330850999999 -535.45954150844716
0.96446195000000 1.60581151000000 109.93103153000000 -535.46820631160597
0.91520422000000 1.76511090000000 103.00000000000000 -535.46712566926317
0.96446195000000 1.67656657000000 125.37334577000000 -535.45925775519595
0.86021947000000 1.76035853000000 103.00000000000000 -535.45681706686196
0.96446195000000 1.47473111000000 106.13228977000000 -535.44227800927297
0.96446195000000 1.68310914000000 146.00764680000000 -535.43051895904796
1.13418866000000 1.68397428000000 103.00000000000000 -535.45370687073296
0.75263968000000 1.68888476000000 105.28927932000001 -535.40080382842302
0.85199381000000 1.42609500000000 103.00000000000000 -535.40531217294404
0.96446195000000 1.64281739000000 105.08095489999999 -535.47107296062893
1.01517594000000 1.73580803000000 103.00000000000000 -535.46908654725701
0.96446195000000 1.79767753000000  98.38383370000000 -535.46794903258296
1.10781707000000 1.68888476000000  81.17609126000001 -535.44430674747400
0.98601212000000 1.68888476000000  60.45685441000000 -535.40889591244604
0.96722674000000 1.52519604000000 103.00000000000000 -535.45554797727596
1.00049905000000 1.68888476000000 116.12733162000001 -535.46613976762399
0.96446195000000 1.80742151000000 109.26794293000000 -535.46479438966492
1.33296931000000 1.68888476000000 120.81364847000000 -535.40567803849399
0.96446195000000 1.98469786000000 120.28203894000001 -535.43749787850891
0.82492968000000 1.68888476000000  57.40886525000000 -535.36537336042204
0.96446195000000 1.63245787000000 102.05290380000000 -535.47030891587406
1.18383877000000 1.78144680000000 103.00000000000000 -535.44158280080717
1.00139031000000 1.68888476000000 100.57532540000000 -535.47072470346700
0.96446195000000 1.84332838000000 115.06442815000000 -535.45778910550700
1.13885929000000 1.45793009000000 103.00000000000000 -535.41536558580401
1.02284717000000 1.68888476000000 126.72085855000000 -535.45456190616892
1.12565173000000 1.68888476000000 137.60331481000000 -535.42596601012394
0.84606889000000 1.68888476000000  94.03081616000000 -535.45203016894698
1.04615210000000 1.89833265000000 103.00000000000000 -535.45391395112699
1.36575140000000 1.70551991000000 103.00000000000000 -535.40680944616804
0.96446195000000 1.84669910000000  84.80335482000000 -535.45939069535996
0.95392093000000 1.68888476000000 132.32762170999999 -535.45042781708003
0.96446195000000 1.66710503000000 142.61174491000000 -535.43638490444505
1.03417786000000 1.77907257000000 103.00000000000000 -535.46529326336702
1.27305364000000 1.66459904000000 103.00000000000000 -535.42584315182603
0.89110223000000 1.70801486000000 103.00000000000000 -535.46590764779398
0.80062055000000 1.68888476000000  80.87269027000001 -535.41753836805117
1.11437647000000 1.58323618000000 103.00000000000000 -535.45079373431292
0.96446195000000 1.85500061000000 107.12777144000000 -535.46146800947201
0.96446195000000 1.78135198000000 102.74494163999999 -535.46883851106099
0.92506121000000 1.65991874000000 103.00000000000000 -535.47010841393399
1.09982466000000 1.68888476000000  74.38332874000000 -535.43508941137600
0.95912798000000 1.65829881000000 103.00000000000000 -535.47157550581096
0.93896650000000 1.54893387000000 103.00000000000000 -535.46000365323903
0.91541315000000 1.40227383000000 103.00000000000000 -535.40470759941695
1.06497035000000 1.68888476000000  94.10153047000000 -535.46237997670892
0.96446195000000 1.69232317000000  72.94635452000000 -535.44232636480797
0.96446195000000 1.60150654000000 105.22772653000000 -535.46827778556496
1.24605549000000 1.68888476000000 115.61109050000000 -535.42745929748003
0.96647664000000 1.53100496000000 103.00000000000000 -535.45687862699401
0.96446195000000 1.62339392000000  62.50196068000000 -535.40182621180497
0.94316985000000 1.68888476000000  92.10027520000000 -535.46788077240205
1.03159423000000 1.67264999000000 103.00000000000000 -535.46831807274702
0.85488350000000 1.68888476000000  93.14305997000000 -535.45430531454804
1.19738190000000 1.68888476000000  83.48554433000000 -535.43120475112698
0.93486317000000 1.50031958000000 103.00000000000000 -535.44831313712405
0.96446195000000 1.71949542000000  80.93395769999999 -535.45781189245997
1.01035393000000 1.68888476000000 112.65572844000000 -535.46762540817201
1.40189484000000 1.62826264000000 103.00000000000000 -535.39785626566402
0.96446195000000 1.86763045000000  89.42080912999999 -535.46060439806399
1.00676208000000 1.68888476000000 129.37760925000001 -535.45266884902901
0.96446195000000 1.55305747000000  93.30566181000000 -535.45471625799803
1.08697920000000 1.68888476000000 128.49620522999999 -535.44462884833194
1.01674206000000 1.68888476000000 112.46448493000000 -535.46723177510398
0.96446195000000 1.55968916000000 113.75164746999999 -535.46206404121006
0.97627840000000 1.68888476000000 111.03170369000000 -535.47007885288804
0.79809770000000 2.01120242000000 103.00000000000000 -535.40508047039691
0.96446195000000 1.79512913000000 101.15824046000000 -535.46810154304205
0.96446195000000 1.53636281000000 141.69069442000000 -535.43220568717504
0.94449436000000 1.93091039000000 103.00000000000000 -535.45448516632598
1.11592230000000 1.54500958000000 103.00000000000000 -535.44440704468491
1.02043844000000 1.75121647000000 103.00000000000000 -535.46803836689503
1.18410704000000 1.68888476000000  89.61765004000000 -535.43949042269401
0.93319431000000 1.68888476000000 117.92578256000000 -535.46504829566095
0.98032908000000 1.68888476000000  79.64591553000000 -535.45433232531798
1.04394915000000 1.68888476000000 110.94268889000000 -535.46531712168598
1.18968787000000 1.68325570000000 103.00000000000000 -535.44323094521098
1.15317255000000 1.68888476000000  74.53497178000001 -535.42711567137917
0.96319421000000 1.56059083000000 103.00000000000000 -535.46260565536295
0.87667291000000 1.76422950000000 103.00000000000000 -535.46078070824399
0.96446195000000 1.68154343000000  88.74472405000000 -535.46540203316397
0.96446195000000 1.63066048000000 125.32568030000000 -535.45927992223801
0.96446195000000 1.70557168000000  65.80814296000000 -535.42665241984491
1.14769214000000 1.68888476000000  72.89146168000001 -535.42526616099497
0.92140432000000 1.68888476000000 102.24265764000000 -535.47012450137902
1.02556826000000 1.68888476000000 115.59033174000000 -535.46458742209995
0.95327661000000 1.68888476000000 123.77443298999999 -535.46055177481799
0.96446195000000 1.91844103000000 107.31046007000000 -535.45470935291917
1.50591122000000 1.72228127000000 103.00000000000000 -535.37917976084998
1.37307429000000 1.68888476000000  88.94113590000001 -535.40004699576491
1.21921077000000 1.67810273000000 103.00000000000000 -535.43724287224995
0.96446195000000 1.72755482000000  83.47899843000000 -535.46123163876098
1.12108523000000 1.49802330000000 103.00000000000000 -535.43219045208696
0.79917827000000 1.68888476000000 121.68116365000000 -535.42500946777398
0.96446195000000 1.71906202000000  82.60489858000000 -535.45998746935300
0.96446195000000 1.60934291000000 108.70604081000000 -535.46873303310701
0.93115658000000 1.94383492000000 103.00000000000000 -535.45219748998397
1.11887191000000 1.68888476000000 104.93100989000000 -535.45625581296804
0.96446195000000 1.96574379000000 117.25920137999999 -535.44246843366795
0.96446195000000 1.82988144000000 115.77904667999999 -535.45853466482890
1.07096888000000 1.69376197000000 103.00000000000000 -535.46379705030495
0.94588371000000 2.07854971000000 103.00000000000000 -535.43734981347291
0.93499171000000 1.68888476000000 133.33061556000001 -535.44840756588098
0.94237899000000 1.68888476000000 102.47775987000000 -535.47155827008100
0.96446195000000 1.53562755000000  69.58196697000000 -535.39993749061000
0.77498423000000 1.76996633000000 103.00000000000000 -535.41532407326804
0.98880136000000 1.68888476000000 121.20725806999999 -535.46259526333301
1.14472410000000 1.90791563000000 103.00000000000000 -535.43827566757295
1.19327599000000 1.68888476000000  87.70666066000000 -535.43615275098898
0.87684058000000 1.83875920000000 103.00000000000000 -535.45512029036297
1.34477260000000 1.68888476000000  85.35653762000000 -535.40287225007296
0.96446195000000 1.90291766000000  93.95378052000000 -535.45877161888495
1.20241703000000 1.68888476000000 104.97663274999999 -535.44058627430604
0.98652520000000 1.68888476000000 103.23420719000001 -535.47161081182901
0.96446195000000 1.78082906000000  79.61505452000000 -535.45672465416703
0.96446195000000 1.74219430000000 120.62012036000000 -535.46132176343394
1.01607572000000 1.68888476000000 143.01072307999999 -535.43245727001499
0.96446195000000 1.62871961000000 103.51542851000001 -535.47028062787797
1.24983844000000 1.85088733000000 103.00000000000000 -535.42308346186098
0.96446195000000 1.81555383000000 111.55056974000000 -535.46283495541002
0.96446195000000 1.71215237000000  69.35719183000000 -535.43619734704600
0.88925459000000 1.82358806000000 103.00000000000000 -535.45904501754501
0.96446195000000 1.61304655000000 106.85459640000001 -535.46924273087200
1.05770549000000 1.66494307000000 103.00000000000000 -535.46521320895204
0.94511761000000 1.89866075000000 103.00000000000000 -535.45801982083196
1.09607060000000 1.68888476000000 111.34736839000000 -535.45805608495516
0.87974565000000 1.68888476000000  92.91708328000000 -535.46057276110901
1.03696781000000 1.86089997000000 103.00000000000000 -535.45856018870199
0.99209886000000 1.72401822000000 103.00000000000000 -535.47088771143103
0.77264823000000 1.71386024000000 103.00000000000000 -535.41636701902996
0.96446195000000 1.55257385000000 113.30549490999999 -535.46116855912601
0.95482203000000 1.68888476000000  97.76307978000000 -535.47111951283796
1.13885786000000 1.59889071000000 103.00000000000000 -535.44836482784899
1.01536137000000 1.68888476000000  82.14339056000000 -535.45641858216800
0.97067090000000 1.54968566000000 103.00000000000000 -535.46063469583601
0.96446195000000 1.76097255000000 108.01690591000001 -535.46870309161500
0.91074594000000 2.15838245000000 103.00000000000000 -535.42505113267896
0.96446195000000 1.96460357000000  89.80227257999999 -535.45180203019800
1.15621431000000 1.68888476000000 112.00045894000000 -535.44734775231098
0.96446195000000 1.96003073000000 109.20973479000000 -535.44895546019700
1.03720481000000 1.68888476000000 106.45698865999999 -535.46752015839104
1.12082166000000 1.68888476000000 131.73004177000001 -535.43509882901606
1.07151823000000 1.68888476000000 116.81302300000000 -535.45837307285296
0.96727704000000 1.68888476000000 107.60811506000000 -535.47142112729296
1.27095340000000 1.58835318000000 103.00000000000000 -535.42105247352492
1.26726137000000 1.50474271000000 103.00000000000000 -535.40607842173199
0.97136730000000 1.69167377000000 103.00000000000000 -535.47199486519696
1.02265994000000 1.68738545000000 103.00000000000000 -535.46929800551698
0.90597806000000 1.72757044000000 103.00000000000000 -535.46770708862402
1.29890613000000 1.68888476000000  94.43393424000000 -535.41885525377404
0.96446195000000 1.92307453000000 127.02887579999999 -535.43715393826403
1.03266585000000 1.47623876000000 103.00000000000000 -535.43751543448900
0.90846194000000 1.82312899000000 103.00000000000000 -535.46213356522196
0.84343658000000 1.68888476000000  79.71015523000000 -535.43505903489597
0.92621603000000 1.78202779000000 103.00000000000000 -535.46715796784099
1.04000735000000 1.65461038000000 103.00000000000000 -535.46697492234091
0.94691390000000 1.68888476000000  87.62438954000000 -535.46423878848498
0.75786127000000 1.68888476000000  82.87953661000000 -535.39102751895996
0.96446195000000 1.47319932000000 106.20318913000000 -535.44177195627901
1.07470788000000 1.53467206000000 103.00000000000000 -535.44869326137098
1.04318243000000 1.68026202000000 103.00000000000000 -535.46720212761295
0.96446195000000 1.70665305000000  74.29842422999999 -535.44623546397690
0.69936740000000 1.86608102000000 103.00000000000000 -535.32980475921295
0.94174007000000 1.68888476000000  63.08564651000000 -535.41511299624506
1.15683888000000 1.68888476000000  93.59447023000000 -535.44723890316493
0.80487194000000 1.68888476000000  94.84817685000000 -535.43470445418598
1.39572381000000 1.68888476000000  88.97217623000000 -535.39544204737103
0.96022601000000 1.68888476000000  67.25852232000000 -535.42834551486317
0.96446195000000 1.54268451000000  75.73616375000000 -535.42042467412500
1.00849721000000 1.68888476000000 127.60880215000000 -535.45468810951400
1.45626246000000 1.78657058000000 103.00000000000000 -535.38550646449198
1.08037716000000 1.68888476000000  74.76205314000001 -535.43832479941000
0.96446195000000 1.68955214000000 105.61393407000000 -535.47183931991799
1.13939518000000 1.68733424000000 103.00000000000000 -535.45279681059299
0.87627810000000 1.68888476000000  71.48291368000000 -535.42807042146001
0.96911792000000 1.61949176000000 103.00000000000000 -535.46954884987292
0.82641159000000 1.68888476000000 101.61780215000000 -535.44719788247698
0.76950934000000 1.83234394000000 103.00000000000000 -535.40622790608700
1.10387384000000 1.68888476000000 101.23301892000001 -535.45881849493901
1.50510886000000 1.68888476000000 102.00286348000000 -535.37982033527305
1.17243041000000 1.51213470000000 103.00000000000000 -535.42680813132699
1.12013433000000 1.68888476000000  65.11573706000000 -535.41382875267800
1.02888726000000 1.86334967000000 103.00000000000000 -535.45910082239095
0.96446195000000 1.60331560000000 119.33608275000000 -535.46338888798505
0.93393520000000 1.68888476000000 105.46329382000000 -535.47095350126801
1.04336812000000 1.68888476000000 106.72471056000001 -535.46679522754596
1.08441409000000 1.68888476000000 112.70162295999999 -535.45914783175294
0.97065214000000 1.68888476000000 139.47027281000001 -535.44028703147001
0.96446195000000 1.78156807000000  66.64786601000000 -535.43449423502898
0.96446195000000 1.61275038000000  90.39618367000000 -535.46149750768404
0.84694522000000 1.81194650000000 103.00000000000000 -535.44905106554097
1.12495839000000 1.68888476000000 119.66684979999999 -535.44772981512995
0.96446195000000 1.89628457000000  82.07746371000000 -535.45402000422496
0.96446195000000 1.82457319000000  69.17641055999999 -535.44046576439405
0.90109352000000 1.86271801000000 103.00000000000000 -535.45744026580599
0.92929929000000 1.77785922000000 103.00000000000000 -535.46767601578699
0.87485489000000 1.62219506000000 103.00000000000000 -535.46077139035799
1.12230376000000 1.68888476000000 116.82021688000000 -535.45045726425997
0.96446195000000 1.58448047000000 107.22510930999999 -535.46651755534197
0.92027400000000 1.68888476000000  76.71691908000000 -535.44676975888206
0.96446195000000 1.53689144000000 110.05898963999999 -535.45914436892997
0.96446195000000 1.44144316000000  90.88648966000000 -535.41284200093003
0.96446195000000 1.55888169000000  83.45372802000000 -535.44194401797802
0.96446195000000 1.88437792000000 120.97290897000001 -535.44818861690703
1.11095595000000 1.68888476000000 100.58724189000000 -535.45759872519795
1.14389312000000 1.62726960000000 103.00000000000000 -535.44989894741900
0.90671681000000 1.68888476000000  90.39136207999999 -535.46336855987693
0.81515367000000 2.06834225000000 103.00000000000000 -535.40731165255897
0.94284108000000 1.84324207000000 103.00000000000000 -535.46339638417203
0.84297861000000 1.68888476000000  75.99014433000001 -535.42803649142297
1.08354908000000 1.68888476000000  82.48738871000000 -535.44955564766701
1.04227140000000 1.68888476000000 110.46425553000000 -535.46571179437206
0.96446195000000 1.85490990000000 121.55825722000000 -535.45072165997794
0.96446195000000 1.89991301000000  79.31183765000000 -535.45142837980802
0.98629636000000 1.86312484000000 103.00000000000000 -535.46180333203802
0.96446195000000 1.65196198000000 111.26944549000000 -535.47000835889196
0.76007599000000 1.58645038000000 103.00000000000000 -535.40227409023203
1.45962492000000 1.68888476000000 107.89199102000001 -535.38784412925202
0.77848603000000 1.68888476000000  82.02075596000000 -535.40548077944698
0.96446195000000 1.52334922000000 117.06704525000001 -535.45451071274999
0.96446195000000 2.02393740000000 110.16619793000000 -535.44086264624900
1.03356114000000 1.68888476000000 123.08881782000000 -535.45745924899404
0.86382871000000 1.68888476000000  59.90174190000000 -535.38973249787205
0.95672846000000 1.68888476000000  99.85713991000000 -535.47168708986703
1.07280415000000 1.68888476000000 134.98661102000000 -535.43808920056404
1.11661381000000 1.63276254000000 103.00000000000000 -535.45505105199402
0.86417569000000 1.68888476000000  78.78089704000000 -535.43999993232001
1.12984907000000 1.68888476000000 102.16271266000000 -535.45449642898905
0.85190537000000 1.84657906000000 103.00000000000000 -535.44758535190283
0.97889994000000 1.66125905000000 103.00000000000000 -535.47148260966605
1.05886613000000 1.68888476000000 116.88698588000000 -535.45999402757400
1.12035697000000 1.68888476000000 138.55360317000000 -535.42543954590701
1.05701968000000 1.68888476000000  79.16015136000000 -535.44831018481500
0.96446195000000 1.58489352000000  97.51730382000000 -535.46378104258201
0.96446195000000 1.60676990000000 112.80595432000000 -535.46735288743400
0.96446195000000 1.62505402000000  88.16948632000000 -535.46046841078805
0.96446195000000 1.69162122000000  94.16830822000000 -535.46971175653698
0.97459378000000 1.59855021000000 103.00000000000000 -535.46757810080499
0.96446195000000 1.50669661000000  89.86901997000000 -535.43799705132892
0.96446195000000 1.72543984000000  86.00095123000000 -535.46391490952396
1.17578122000000 1.68888476000000 108.16241459000000 -535.44515795195002
0.96446195000000 2.11705297000000 119.64900912000000 -535.42324241965400
0.77558451000000 1.52788730000000 103.00000000000000 -535.40419882702702
0.90693426000000 1.68888476000000  70.80200327000000 -535.43241365068491
0.93420461000000 1.96803424000000 103.00000000000000 -535.44964840974797
1.18599234000000 1.68888476000000  88.56169923000000 -535.43829363938198
1.11895928000000 1.68888476000000 109.45227487000000 -535.45511493391405
0.96446195000000 1.84305256000000 107.51475968000000 -535.46244526626492
1.26174438000000 1.68888476000000  86.76963705000000 -535.42145344649396
1.22856621000000 1.68888476000000 103.97135618000000 -535.43537729594198
0.82259337000000 1.66232286000000 103.00000000000000 -535.44544969572905
1.30376103000000 1.68888476000000 107.06101086000000 -535.41928725055095
0.87739189000000 1.68888476000000 118.72840925000000 -535.45686236216795
0.91678623000000 1.84001064000000 103.00000000000000 -535.46165197083701
0.97801891000000 1.59218320000000 103.00000000000000 -535.46680068625301
0.99509817000000 1.68888476000000 100.17259623000000 -535.47101066639300
1.18059827000000 1.68888476000000 117.41735950000000 -535.43930431829483
1.15279327000000 1.68888476000000  87.63276637000000 -535.44377166058496
0.95425022000000 1.68888476000000 112.85660202000000 -535.46923343228298
0.96446195000000 1.63768356000000  96.21693572000000 -535.46852189607796
0.96446195000000 1.87099651000000  67.14424388000000 -535.43643691942998
1.02490015000000 1.68888476000000  92.49648331000000 -535.46586734525999
0.91124580000000 2.03098685000000 103.00000000000000 -535.43992701040202
1.25529517000000 1.67551007000000 103.00000000000000 -535.42976715247516
0.76543747000000 1.68888476000000 100.58863205000000 -535.41115456467503
0.96446195000000 1.78666594000000  95.31063712000000 -535.46811660100002
1.08550027000000 1.87045588000000 103.00000000000000 -535.45165484666597
0.96446195000000 1.71174714000000 111.70067383999999 -535.46936068671516
0.96446195000000 1.74379475000000  91.62528484000001 -535.46821149538698
1.20915250000000 1.68888476000000 120.96452947000000 -535.43073727452099
0.81261257000000 1.68888476000000  89.59251454000000 -535.43482698274897
0.86406648000000 1.68888476000000 105.76379093000000 -535.45998717729799
0.96446195000000 1.61450277000000 148.82872237999999 -535.42746530153602
0.96446195000000 2.05574881000000  85.62376487000000 -535.44109005162602
1.12156044000000 1.68888476000000 116.59925373999999 -535.45074525253801
0.96446195000000 1.52426393000000 135.39196279000001 -535.43848171586899
0.96446195000000 1.86599177000000 116.77929995000000 -535.45407612552196
1.22493945000000 1.63810023000000 103.00000000000000 -535.43474789959305
0.96446195000000 1.77379548000000 102.94780774000000 -535.46927830495997
0.96960702000000 1.68888476000000  95.77772521999999 -535.47044374181803
0.87502314000000 1.86577703000000 103.00000000000000 -535.45209926280802
0.92133715000000 1.93436674000000 103.00000000000000 -535.45238804994494
1.18502034000000 1.68888476000000 123.25440441000001 -535.43329476562997
0.98085246000000 1.68888476000000 122.83715352000000 -535.46132025503698
0.67180133000000 1.85122098000000 103.00000000000000 -535.28908710060205
0.98584484000000 1.84707058000000 103.00000000000000 -535.46331661241800
1.27219162000000 1.62236045000000 103.00000000000000 -535.42399725532596
0.96446195000000 1.63224845000000 132.36841777000001 -535.45116416904898
0.86820208000000 1.68888476000000  83.76500024000001 -535.44875405677692
1.02129787000000 1.83928120000000 103.00000000000000 -535.46194859778200
0.96446195000000 1.68387036000000  80.90297008000000 -535.45597238483901
0.94065473000000 1.68888476000000  92.06321299000000 -535.46773430012195
1.00127265000000 1.89871780000000 103.00000000000000 -535.45759296827600
0.75598297000000 1.69491812000000 103.00000000000000 -535.40367648632798
0.90287608000000 1.68888476000000  77.43607734000000 -535.44581558338803
0.96959117000000 1.68888476000000  71.86117621000000 -535.43974044365700
1.09826226000000 1.68888476000000  78.53177583000000 -535.44202764692398
1.21118350000000 1.68888476000000  89.41401571999999 -535.43397929801404
0.96446195000000 1.52081161000000  95.01557515000000 -535.44873424030800
1.14304843000000 1.60327537000000 103.00000000000000 -535.44805561884596
0.96446195000000 1.51255057000000  84.99240119000000 -535.43158523675902
1.00337205000000 1.68888476000000 109.04534774000000 -535.46968787165201
0.73999588000000 1.66344806000000 103.00000000000000 -535.38917631602703
0.93375333000000 1.68888476000000 104.27536889000000 -535.47106544382098
1.01185935000000 1.68888476000000 103.86498014999999 -535.47015070731902
0.87464887000000 1.68888476000000 125.59283800999999 -535.44971744991699
1.08392023000000 1.89493029000000 103.00000000000000 -535.44947690685103
0.96446195000000 1.48633704000000 117.85872672000001 -535.44525429915404
1.34200501000000 1.77029003000000 103.00000000000000 -535.40953777016091
1.00722092000000 1.68888476000000  91.98235406000001 -535.46689073643097
0.96446195000000 1.88585139000000  93.84222269000000 -535.46035958650702
0.90851981000000 1.68888476000000 101.73244098000001 -535.46868070826099
0.95769560000000 1.64217818000000 103.00000000000000 -535.47093926318905
0.86992808000000 1.81103122000000 103.00000000000000 -535.45587543596400
0.98730720000000 1.71620594000000 103.00000000000000 -535.47128299823999
0.84553558000000 1.48133307000000 103.00000000000000 -535.42629982698202
0.99989552000000 1.79418725000000 103.00000000000000 -535.46697856596700
1.36398088000000 1.79626156000000 103.00000000000000 -535.40342303491298
0.96446195000000 1.59952821000000  61.95324706000000 -535.39340121445503
1.11752948000000 1.68888476000000  99.71053302000000 -535.45637381575204
0.96792308000000 1.73298976000000 103.00000000000000 -535.47122956994599
1.32235763000000 1.68888476000000 114.60996394999999 -535.41234926887500
1.04923028000000 1.68888476000000  60.92840141000000 -535.40921867684892
0.91238949000000 1.75391367000000 103.00000000000000 -535.46740628980797
1.09838701000000 1.68888476000000 105.56732001000000 -535.45952078030302
0.91182675000000 1.68888476000000 108.48894405999999 -535.46832344690404
0.96446195000000 1.55895387000000 130.83181943000000 -535.44864891224097
1.01313701000000 1.68888476000000  62.35207875000000 -535.41484060834603
1.07241727000000 1.50563232000000 103.00000000000000 -535.44190602139099
0.96446195000000 1.49475932000000 117.72809281000001 -535.44760429385201
0.96446195000000 1.93681021000000  96.50271794000000 -535.45547006904997
0.96446195000000 1.93183549000000 111.72876058999999 -535.45065214002398
0.94172402000000 1.55343308000000 103.00000000000000 -535.46094718532004
1.08497572000000 1.68671760000000 103.00000000000000 -535.46179037707293
1.12118055000000 1.68888476000000 105.74280499000000 -535.45574154580891
0.96446195000000 1.56565330000000 120.86183876000000 -535.45886907134798
1.11744255000000 1.68888476000000  94.45630005000000 -535.45467105608202
0.76192287000000 1.68888476000000  74.73231732000001 -535.37966840331399
0.92790283000000 1.68888476000000  96.19176163000000 -535.46923866337204
0.96446195000000 1.72386078000000 109.11337387000000 -535.47010439430096
0.96446195000000 1.88832267000000 118.45403142000001 -535.45019405276003
1.17498739000000 1.68888476000000 119.80111626999999 -535.43845941593895
0.96446195000000 1.70525709000000  83.78561994000000 -535.46100136170401
0.83754513000000 1.75589445000000 103.00000000000000 -535.44960682797705
0.88544233000000 1.68565017000000 103.00000000000000 -535.46507282685002
1.16604877000000 1.82873965000000 103.00000000000000 -535.44167864448491
0.96446195000000 1.89766285000000  71.84703703000000 -535.44302488429503
1.00035132000000 1.74429044000000 103.00000000000000 -535.46975903693499
1.09389912000000 1.68888476000000 109.73458470000000 -535.45908066195705
0.96446195000000 1.72699560000000  90.68848994000000 -535.46782218095700
1.03966023000000 1.89910679000000 103.00000000000000 -535.45451888944092
1.03022504000000 1.65578239000000 103.00000000000000 -535.46802380954898
1.16050217000000 1.68888476000000  82.36782134000001 -535.43688704700196
0.96446195000000 1.68981975000000 118.95491559000000 -535.46511156294400
0.96446195000000 1.64561350000000  96.94627654999999 -535.46941196081900
0.96446195000000 1.91296777000000 108.98453895999999 -535.45445312524703
1.23630111000000 1.68888476000000  83.15131384999999 -535.42309780825701
0.96446195000000 1.63252495000000 104.67247046999999 -535.47057207057003
0.99230170000000 1.68074613000000 103.00000000000000 -535.47133249136004
0.96446195000000 1.79666202000000 103.46617042000000 -535.46767079553695
0.96446195000000 1.89619627000000  95.00229985999999 -535.45954013735604
0.88557390000000 1.68888476000000 112.27824090999999 -535.46277808618595
0.96446195000000 1.53369969000000 145.41389104000001 -535.42677212387196
0.86839787000000 1.68888476000000  72.92960819000000 -535.42943575601396
1.03003655000000 1.68888476000000  74.14216648000000 -535.44234364967895
1.22344462000000 1.68888476000000  84.69257313000000 -535.42731509282100
0.90457625000000 1.68888476000000  73.06789142000000 -535.43728328589691
1.10465414000000 1.79888724000000 103.00000000000000 -535.45469403685604
1.04325858000000 1.55562823000000 103.00000000000000 -535.45677384843805
0.96135897000000 1.68888476000000  77.75978191000000 -535.45120187405405
0.96446195000000 1.91202517000000 115.74139980000000 -535.44992175770096
0.96446195000000 1.78205672000000  72.41842479000000 -535.44593911302002
0.96446195000000 1.97543082000000 102.66338502000001 -535.45008572252198
0.96446195000000 1.91695567000000  77.47076962000000 -535.44853509032703
1.17407682000000 1.68888476000000 107.64989790000000 -535.44563369088803
0.96446195000000 2.01215646000000 100.92184482000000 -535.44632780092195
0.96446195000000 1.69240169000000 110.63783209000000 -535.47033665484196
0.96446195000000 1.49169231000000  72.85968224000000 -535.39273824312795
0.75978926000000 1.68888476000000 131.03597016000001 -535.38793907664206
0.93818206000000 1.68888476000000 127.83948097000000 -535.45553756564402
0.96446195000000 1.61813367000000  76.16556308000000 -535.43950138602202
0.96446195000000 1.60200273000000  89.25112665000000 -535.45880006080802
0.91132441000000 1.68888476000000 118.80163294000000 -535.46240797617497
0.96446195000000 1.95088497000000 113.06796911000001 -535.44752816380799
0.99441746000000 1.82753201000000 103.00000000000000 -535.46469069477996
0.96467324000000 1.84100847000000 103.00000000000000 -535.46416304159902
0.96446195000000 1.49759970000000 120.92531422000000 -535.44664028045497
1.35309919000000 1.68888476000000 110.41549142000000 -535.40807939663205
0.94095704000000 1.85001023000000 103.00000000000000 -535.46267760266892
0.91398437000000 1.54964800000000 103.00000000000000 -535.45822196523795
1.20355814000000 1.68888476000000 107.46920015000001 -535.43987344559116
0.80952860000000 1.68888476000000  96.74735544000001 -535.43805574179999
0.78533891000000 1.93461141000000 103.00000000000000 -535.40638706458003
1.32720672000000 1.75391715000000 103.00000000000000 -535.41342347758098
0.89456167000000 1.68888476000000  85.84665104000000 -535.45699138128600
0.91602505000000 1.81284541000000 103.00000000000000 -535.46390054419692
1.14672122000000 1.74840861000000 103.00000000000000 -535.45027981399801
0.96446195000000 1.60659091000000 105.99673713999999 -535.46875607689799
0.98579237000000 1.68914685000000 103.00000000000000 -535.47164067844892
0.96446195000000 1.66822281000000  81.78918733000000 -535.45612217250198
1.04735270000000 1.60333163000000 103.00000000000000 -535.46276829045701
0.96446195000000 1.77226157000000 121.78786325000000 -535.45808279207495
1.31526220000000 1.67806437000000 103.00000000000000 -535.41727780990004
0.98189715000000 1.45903966000000 103.00000000000000 -535.43458001817100
1.17617841000000 1.56884568000000 103.00000000000000 -535.43755694115202
0.96446195000000 1.95667404000000 117.18379890000000 -535.44358763910395
1.30850105000000 1.68888476000000  83.37320011000000 -535.40846116299497
0.84774977000000 1.65919206000000 103.00000000000000 -535.45501322183395
1.00168877000000 1.68888476000000 105.41423675999999 -535.47068268310204
1.26501168000000 1.79124570000000 103.00000000000000 -535.42445123202799
0.97333400000000 1.69541002000000 103.00000000000000 -535.47195260669503
1.19317272000000 1.68888476000000  93.84564619000000 -535.44037591879692
1.12239768000000 1.68888476000000 125.01500660000001 -535.44295201239504
1.04977444000000 1.68888476000000 104.76584733000000 -535.46638807021395
0.94118927000000 1.45777200000000 103.00000000000000 -535.43395753463096
1.07644675000000 1.68888476000000 120.15496969000000 -535.45497420619404
0.96446195000000 1.88900679000000 114.29995362000000 -535.45361039522493
0.96446195000000 1.58188034000000  89.35216769000000 -535.45573665726499
0.94579852000000 2.08262760000000 103.00000000000000 -535.43686902553497
0.82991225000000 1.47246849000000 103.00000000000000 -535.41751958471104
1.23585263000000 1.68888476000000 117.68864741000000 -535.42807699706998
1.12424231000000 1.68888476000000  81.04619877000000 -535.44152408191997
0.98388256000000 1.51546862000000 103.00000000000000 -535.45278787761697
1.06198659000000 1.68888476000000  94.60758210000000 -535.46302047218398
0.96446195000000 1.83473005000000  73.12376800000000 -535.44692922200795
1.29075279000000 1.67829701000000 103.00000000000000 -535.42240296141301
1.01660048000000 1.82314303000000 103.00000000000000 -535.46368417457495
1.04459056000000 1.68888476000000 132.85989280000001 -535.44462935901504
0.96446195000000 1.62022623000000  67.91686399000000 -535.41879874335598
0.77284784000000 1.68888476000000  64.19991572000001 -535.35975096654397
1.05163678000000 1.68888476000000  79.59276147000000 -535.44954976716599
1.04835337000000 1.56617826000000 103.00000000000000 -535.45793534926702
0.98941726000000 1.72521351000000 103.00000000000000 -535.47097018197701
0.80749115000000 1.68888476000000 107.63857358999999 -535.43789636923896
1.09726778000000 1.48389772000000 103.00000000000000 -535.43168058061883
0.96446195000000 1.76657463000000  83.17988065999999 -535.46098987246000
1.29508116000000 1.68888476000000 100.64422256000000 -535.42145239484398
0.96446195000000 1.68989521000000 112.17670446000000 -535.46965734724199
1.03122837000000 1.63605184000000 103.00000000000000 -535.46703509808106
0.87874869000000 1.68888476000000 110.15646088000000 -535.46233456383698
1.02719462000000 1.62623725000000 103.00000000000000 -535.46681387533999
0.93723189000000 1.68888476000000  99.64225372000000 -535.47095903141201
0.82171817000000 1.68888476000000 102.85787832000000 -535.44524569896896
1.07102379000000 1.68888476000000 103.19508389000001 -535.46378363448105
0.86016110000000 1.83314900000000 103.00000000000000 -535.45134148418401
1.25271503000000 1.68888476000000 118.98844735000000 -535.42361520005500
1.00894941000000 1.68888476000000 120.91634861000000 -535.46169958867199
0.96446195000000 1.80986763000000  60.24135026000000 -535.42027984537901
0.75040520000000 1.68888476000000 128.61010311000001 -535.38290219839701
0.93521320000000 1.85813475000000 103.00000000000000 -535.46156886039603
1.04253441000000 1.85677346000000 103.00000000000000 -535.45836989233692
1.48993351000000 1.71596573000000 103.00000000000000 -535.38227310518096
0.90760897000000 1.68888476000000  75.67570083000000 -535.44317727872499
1.09438999000000 1.65601223000000 103.00000000000000 -535.45976812145102
0.70890453000000 1.70049869000000 103.00000000000000 -535.35445574483197
1.07607388000000 1.87397928000000 103.00000000000000 -535.45264520115290
0.96446195000000 1.44497730000000  97.79450595000000 -535.42431861501802
1.19286713000000 1.68888476000000 124.37839812000000 -535.43061001117405
0.96446195000000 1.74031810000000 100.24843084000000 -535.47100537097504
0.92593240000000 1.71922596000000 103.00000000000000 -535.47011115259602
0.96446195000000 1.63797420000000 102.32357664000000 -535.47067352796205
1.36833496000000 1.68888476000000  93.06005660000000 -535.40368863763501
1.20524222000000 1.68888476000000 114.79060712000000 -535.43626582531999
1.13138896000000 1.68888476000000  90.68344775000000 -535.45002975763498
1.07231703000000 1.67530163000000 103.00000000000000 -535.46349068185896
0.96446195000000 1.98786167000000 114.70812736000001 -535.44197739435901
1.05617353000000 1.62109526000000 103.00000000000000 -535.46324753567205
0.84997923000000 1.84865473000000 103.00000000000000 -535.44676256001401
0.96446195000000 1.71441264000000 109.01876489000000 -535.47046740006397
0.96446195000000 1.59873740000000  70.11119707000000 -535.42033669637601
0.96446195000000 1.85495223000000 106.21417456000000 -535.46185274585002
1.11741536000000 1.49729371000000 103.00000000000000 -535.43259436770199
0.94083078000000 1.68888476000000 116.63453350000000 -535.46642845880501
0.96446195000000 1.92860130000000  92.72863553000001 -535.45606187046599
0.71782412000000 1.68888476000000 102.40301027000000 -535.36547039912000
0.75811882000000 1.68888476000000 128.72753872999999 -535.38936070270404
0.87789084000000 1.73665645000000  96.96454472000001 -535.46181806075003
1.18044344000000 1.73757970000000  90.00907506000000 -535.44106950597200
1.01481293000000 1.66526540000000 136.38767225000001 -535.44326060390097
1.00390405000000 1.63894062000000 106.29512621000001 -535.46944120798400
1.11495342000000 1.85588294000000  97.45764629000000 -535.44910131773293
0.92027462000000 1.89441733000000  90.81306438999999 -535.45649067914098
0.85585193000000 1.76421002000000  88.42192764000001 -535.45082036563997
1.02654648000000 1.97453086000000  96.14128350999999 -535.44881181067399
1.17662035000000 1.62402748000000  92.33993778000000 -535.43878173739301
0.86814764000000 1.74094009000000  76.07805317000000 -535.43904194523395
0.73004504000000 1.71254982000000 111.90750374000000 -535.37633544240998
0.99447775000000 1.74116910000000  95.69164582000001 -535.46940573521999
0.89055995000000 1.68817312000000 119.72005320000000 -535.45864452214300
0.94678790000000 1.66233599000000  96.84728883000000 -535.46988182518703
0.96098855000000 1.83388861000000 118.24710623000000 -535.45602063336401
0.96844811000000 1.84409379000000  63.77506822000000 -535.42996833261293
1.02141166000000 1.63209403000000 118.96893304000000 -535.46218377774403
0.89247483000000 1.66778441000000  85.19345240000000 -535.45462690974898
1.25173022000000 1.72274284000000 114.98994390999999 -535.42581199272195
1.02390183000000 1.47378903000000 107.94173594999999 -535.43939211562099
1.09518122000000 1.84435486000000 104.46134198000000 -535.45220374372605
0.72788484000000 1.68184112000000 117.58553533000000 -535.37171807209199
0.97642557000000 1.72361466000000  80.68041035000000 -535.45758984771805
0.97835144000000 1.81222538000000 124.98684498000000 -535.45106322899517
0.94835395000000 1.53702668000000  95.90166125000000 -535.45344595583003
0.91526968000000 1.47771299000000 115.25651188000001 -535.44149396453895
0.97202870000000 1.55112481000000 129.53135997999999 -535.44902113599198
1.12539359000000 1.70582749000000  77.03230917000000 -535.43674912791403
1.15251656000000 1.47467171000000 105.31006173999999 -535.42021180074801
0.97286142000000 1.47092324000000 132.81139567000000 -535.42917364306493
1.32379636000000 1.68546619000000 127.57469107000000 -535.40083550529903
0.92337492000000 1.57952141000000 100.45368510000000 -535.46294211181691
1.34783685000000 1.73291625000000 112.46225806000000 -535.40705187995695
0.96386261000000 1.66135595000000 128.76024545999999 -535.45564887141290
0.99016657000000 1.71138792000000 139.80046192000000 -535.43806090567796
1.11035745000000 1.94346812000000  99.70012997000001 -535.44115798523205
1.04917444000000 1.82523542000000  94.92541296000000 -535.46050420646100
0.95413055000000 1.70245262000000 102.73968705000000 -535.47186032368495
0.85030474000000 1.60312517000000  95.96791131000001 -535.44932040331605
1.04683385000000 1.68947370000000 107.87771045000000 -535.46610655052598
0.96922488000000 1.68384635000000 109.36959232000000 -535.47090381714497
0.97024553000000 1.60395775000000 118.64411616000000 -535.46386533844100
1.02526514000000 1.65713106000000 138.91529349000001 -535.43878118296595
1.04434240000000 1.68032110000000  77.28364707000000 -535.44598624889102
1.12884251000000 1.70888612000000 127.72611275000000 -535.43810828827395
0.89027806000000 1.71715079000000  84.62627234000000 -535.45573173564105
0.95943481000000 1.94446364000000 118.34950010999999 -535.44389480850600
1.16618310000000 1.80151898000000  99.32671610000000 -535.44405356442701
1.08470472000000 1.65180558000000  74.18829528000001 -535.43275127722893
1.10645310000000 1.69282971000000 135.22896112000001 -535.43252619168800
1.03749769000000 1.89785147000000 108.78111653000001 -535.45249576845299
0.95350098000000 1.51770138000000  74.55457733000000 -535.40820390088004
1.07665846000000 1.69696192000000 131.93428716000000 -535.44148224013395
0.86620430000000 1.79541942000000  96.89442749000000 -535.45614159320303
0.80923153000000 1.65498640000000 109.60020931000000 -535.43830942249701
1.23881368000000 1.79625764000000 107.59805436000001 -535.42826437018505
0.90480291000000 1.66552207000000 113.53296717000001 -535.46546246615901
0.95754183000000 1.46796103000000  97.87440192000000 -535.43419372775895
1.00691201000000 1.62976908000000  99.60629661000000 -535.46794420181800
0.95709825000000 2.00366467000000 102.75106198000000 -535.44664960761691
0.86635965000000 1.72136985000000  69.70873171000000 -535.42431421861693
0.88672991000000 1.59150825000000 108.73864628000000 -535.46076761194297
0.75086190000000 1.82414663000000 101.75172510000000 -535.39184858566603
1.04343353000000 1.90948671000000 106.53409431999999 -535.45174170970495
0.95777236000000 1.65510760000000  90.57637631000000 -535.46557352766297
1.11602793000000 1.64276992000000 112.61172508999999 -535.45376329606404
0.93533122000000 1.73391187000000  82.36077580000000 -535.45890995143805
0.90039097000000 1.54279958000000 103.36584864000000 -535.45534393867604
0.98905141000000 1.73508926000000  87.65790715000000 -535.46509538587497
1.00633202000000 1.79749738000000 116.28670796999999 -535.45970206965205
0.89668447000000 1.67426724000000  95.25608049000000 -535.46477499588605
1.14506044000000 1.91511065000000 105.44483679000000 -535.43663149775603
0.85754088000000 1.78636740000000  97.89093880000000 -535.45444103720797
0.99833562000000 1.74130108000000  92.55152531000000 -535.46791020399098
1.11111180000000 1.71851477000000  85.00652104000000 -535.44937749267899
1.02547705000000 1.72363833000000  60.98988167000000 -535.41510524075500
1.10299654000000 1.75899935000000 107.13691378999999 -535.45632278074197
0.89703367000000 1.90447339000000 111.02877453000001 -535.44875168023202
0.93389435000000 1.67337612000000  87.56726413000000 -535.46275238995997
0.94601570000000 1.99077691000000  73.26576455999999 -535.43841624336596
0.88257331000000 1.62040264000000 107.26423207000001 -535.46243885268996
0.85327277000000 1.44879926000000 110.59625561999999 -535.41958968456004
0.93897335000000 1.81767287000000  96.36367701000000 -535.46560157723104
0.91735855000000 1.65258031000000 124.43563263999999 -535.45838915985917
0.79369845000000 1.69696814000000 114.39188419000000 -535.42715817629005
1.01889299000000 1.71619926000000  97.80738113000000 -535.46887921717700
1.10706289000000 1.70298919000000 100.43384062000000 -535.45824434941699
0.96824513000000 2.07685545000000  92.99747791999999 -535.43994770244296
0.89467426000000 1.65829518000000 107.73224999999999 -535.46604541710803
0.90550101000000 1.61183674000000  78.31649041999999 -535.43844416330091
0.95385730000000 1.83767997000000  86.89062536000000 -535.46117886094100
0.98737206000000 1.94523298000000  96.24248496000000 -535.45430355976202
1.08277643000000 1.71308150000000 112.89477943999999 -535.45874505202596
1.29182222000000 1.63092838000000 104.03471822000000 -535.42056149514406
1.30764126000000 1.60481139000000 101.81456240000000 -535.41495778084004
1.03001011000000 1.67618686000000 113.59889029000000 -535.46553973325399
0.89748311000000 1.75013072000000  88.63864589000001 -535.46089101134999
1.05860279000000 1.70250808000000  79.64634081000000 -535.44967296759705
0.81925045000000 1.71901395000000  70.74241966000000 -535.40920946963502
1.41162484000000 1.68337942000000 121.12741419000000 -535.39001796536195
0.91120434000000 1.87623778000000 108.75590400000000 -535.45523029858498
1.06391315000000 1.50655508000000 110.06330341000000 -535.44473373750895
1.01752708000000 1.63192606000000 137.74795970000000 -535.44122531247899
1.08842503000000 1.44541997000000 101.57862132000000 -535.41736913531599
0.96764729000000 1.81080403000000 120.53020165000000 -535.45608082279603
0.98721226000000 1.65220620000000 110.57812649000000 -535.46977297216495
1.08538245000000 1.48171282000000  95.76433776000000 -535.42701931335000
0.77750294000000 1.56348989000000  96.78575827000000 -535.40862472079516
0.86140590000000 1.67972952000000  99.93893104000000 -535.45903361260196
0.88256074000000 1.78097909000000  85.14056179000001 -535.45441937493501
0.96839349000000 1.46526967000000 122.01264541000000 -535.43665388385398
0.92529418000000 1.70273963000000 105.23552118000001 -535.47019704117895
1.00426206000000 1.66737565000000 123.44098266000000 -535.45995753170996
1.06993066000000 1.66341927000000  76.71737770000000 -535.44060804639003
1.03328833000000 1.98979294000000  98.75001281999999 -535.44622898826799
1.24267375000000 1.84142640000000 103.20088889000000 -535.42532657591903
0.88551986000000 1.72084810000000 115.36795453000001 -535.45984953752395
1.05865099000000 1.66956579000000 124.24062977000000 -535.45372949073396
1.01317727000000 1.60197542000000 113.32101667000001 -535.46463382153695
0.97107175000000 1.69293179000000 120.85770359999999 -535.46331653318998
1.02326611000000 1.77003752000000  80.72689652000000 -535.45599507052202
0.87250617000000 1.67256807000000  99.63654013999999 -535.46169637660398
0.87643664000000 1.96232278000000 102.75797020000000 -535.44187084422697
1.02863374000000 1.88838856000000 107.42322174000000 -535.45501309490498
0.99024267000000 1.84753219000000  65.59693126000001 -535.43381448155299
0.99750975000000 1.76822419000000  69.05625960000000 -535.43902590263292
0.85535239000000 1.71848460000000 113.76205569000000 -535.45362276463800
1.00463711000000 1.48186702000000 118.91703113000000 -535.44183709147899
1.08747273000000 1.44691736000000  99.93346884000000 -535.41682343590105
1.01773952000000 1.68722147000000  63.57197011000000 -535.41803000414598
0.98004626000000 1.99084426000000 133.76710987999999 -535.42101916308195
1.34768311000000 1.54650650000000 102.98129615000001 -535.39918067854296
1.13610551000000 1.65233504000000  88.60602978999999 -535.44553112252891
0.95201845000000 1.71080736000000  82.30674969000000 -535.45908656451502
0.88972789000000 1.50977655000000  99.65171126000000 -535.44381708369394
1.21735740000000 1.69306973000000 107.95998102999999 -535.43692906430397
1.01439643000000 1.48982390000000 114.97550242000000 -535.44488789243599
0.94838730000000 1.61759838000000  85.33618767000000 -535.45552742544896
0.95393765000000 1.70708769000000  83.81920375999999 -535.46092175140700
0.97238970000000 1.84524525000000  82.36127639999999 -535.45752179149997
0.94233713000000 1.48505186000000 144.90427381000001 -535.41853214568800
1.28429277000000 1.65777694000000 118.35656363000000 -535.41775473159692
0.79023655000000 1.69056215000000  72.00796716000001 -535.39380487895596
1.08381029000000 1.65651447000000  97.54948837000001 -535.46022345892493
0.97205937000000 1.56053703000000  96.37389734999999 -535.45894375095895
0.87934883000000 1.80378534000000 100.77544085000000 -535.45892862778203
1.01941790000000 1.48788896000000 102.77270433000000 -535.44253679821497
0.86727995000000 1.67561891000000 102.52686931000000 -535.46093891416297
0.99581087000000 1.75028956000000  98.73617772000000 -535.46972142525601
0.90571259000000 1.62967251000000  68.85223625000000 -535.41795240406498
1.26483841000000 1.59395928000000 105.33033678000000 -535.42322125016597
1.19399412000000 1.66664968000000  86.24150956000000 -535.43345022204596
1.23561141000000 1.98379898000000 104.27014430000000 -535.41208758448295
1.11079423000000 1.71036028000000  95.75217494000000 -535.45654378265897
0.82868823000000 1.62560039000000  88.95748754000000 -535.43726416461402
0.94329416000000 1.86870523000000  98.59766977000000 -535.46166642286198
0.85428205000000 1.70035051000000 112.54253366000000 -535.45467745935503
0.92827979000000 1.72067463000000 110.32596820000001 -535.46838703662002
1.15891186000000 1.65503860000000 111.21095810000000 -535.44702678580302
1.27534719000000 1.72160136000000 110.61215642000001 -535.42339364927398
1.37756100000000 1.70616605000000 103.48745132000001 -535.40436709785899
0.90841039000000 1.59685646000000 122.76391166000001 -535.45726811302598
0.96547318000000 1.68048762000000  92.95427918999999 -535.46871252713697
1.03403957000000 1.63489888000000 111.80009477000000 -535.46529512897803
0.76349767000000 1.73054897000000 116.39296352000000 -535.40338603967098
0.87774266000000 1.51969912000000 112.42184227000000 -535.44737052609401
0.94199601000000 1.59017416000000  67.18961519000000 -535.40785428520599
0.86873441000000 1.78879450000000 105.64826069000000 -535.45668383766895
0.96885718000000 1.76780974000000 108.74184332999999 -535.46797268736896
1.21397320000000 1.69355516000000  87.70139632999999 -535.43221220695796
1.06477332000000 1.63413606000000 109.94691702000000 -535.46227236511299
0.99952293000000 1.67002787000000 132.88654872999999 -535.44910795916098
1.06899918000000 1.74544837000000 102.42586669000001 -535.46297695423800
1.08244594000000 1.72916338000000 128.68057542000000 -535.44340489473404
1.02455718000000 1.65129131000000 113.12448600000000 -535.46611591064095
0.93014136000000 1.63857653000000 106.80228031000000 -535.46965886334897
1.40421680000000 1.58929243000000 104.44706085000000 -535.39441146206093
0.84475849000000 1.64419332000000  96.54339589000000 -535.45137703986802
1.00212988000000 1.67711843000000 107.33125487000000 -535.47029359306896
0.75796149000000 1.66905869000000 111.02920181000000 -535.40412909803104
0.78163861000000 1.60396975000000 112.42296256000000 -535.41935032630602
1.00593452000000 1.73980036000000  65.26970990000000 -535.42868603153102
1.02768986000000 1.54912543000000  89.10944857000000 -535.44576327152492
1.02013469000000 1.72323567000000  79.43145266000001 -535.45393513303202
0.73432744000000 1.70236493000000 127.64007635999999 -535.36804927687194
0.80271287000000 1.73617795000000 109.39581099000000 -535.43310081007598
0.92848298000000 1.65040867000000  65.90879140000000 -535.41611551601602
1.29007636000000 1.69058861000000  81.04366512999999 -535.40983168365597
0.90176910000000 1.62246511000000  75.02673846000000 -535.43237044985199
0.98015009000000 1.73804365000000 111.38474720000001 -535.46822004847695
0.88007866000000 1.63542090000000  95.33162778000001 -535.45974721152891
0.85832107000000 1.73513719000000  86.54823659000000 -535.45036049989199
1.13176151000000 1.82308498000000  99.81703084999999 -535.44880946345097
1.02826045000000 1.63936070000000 108.11593637000000 -535.46719620090698
0.89621707000000 1.72706795000000  85.46191897000000 -535.45786508649405
1.34189195000000 1.67224991000000 124.05984558000000 -535.40113285806399
0.90039382000000 1.80962507000000 102.82022170000000 -535.46213135634605
1.01339785000000 1.80655215000000 112.30049638000000 -535.46133107384298
0.98446094000000 1.62041962000000  76.04437009000000 -535.43964131099904
1.03552358000000 1.69740636000000  94.25816800000000 -535.46602907082604
0.95302121000000 1.92333813000000 123.85943116000000 -535.44058036300396
0.82537624000000 1.64898009000000  75.42339710000000 -535.41542941951298
1.02520921000000 1.76779201000000 100.05887002000000 -535.46697938439195
1.43966732000000 1.60054722000000 106.87340507000000 -535.38884101661699
0.97290634000000 1.84472597000000  95.57095627000000 -535.46417408371292
1.51917437000000 1.89337678000000 103.30488119000000 -535.36473607195796
1.05788224000000 1.73438216000000 105.33071884000000 -535.46440620684905
0.93823238000000 1.91937570000000  82.96274821000000 -535.45191888178897
1.00895247000000 1.96006007000000 106.74451146000000 -535.44895177340004
1.08821098000000 1.92039650000000  98.03310985000000 -535.44717785987916
1.04077786000000 1.87403708000000  95.01651214000000 -535.45753843314105
1.16575543000000 1.83621727000000 100.80684796000000 -535.44150888579895
0.79036027000000 1.66801162000000 121.53168565999999 -535.42054934584701
0.95636372000000 1.45614596000000 117.46248466000000 -535.43569223295196
0.95129781000000 1.91687694000000  97.20298561000000 -535.45727264022003
1.00477266000000 1.81243143000000 123.29474338999999 -535.45184270322898
0.96488777000000 1.79476285000000  96.91768139000000 -535.46797648892004
1.34046852000000 1.67844874000000 114.54806268999999 -535.40877942770396
1.02836303000000 1.76277030000000 117.65688808000000 -535.45945883819900
1.02251010000000 1.62158643000000 121.03880015999999 -535.46002942124699
0.89271322000000 1.57522003000000  90.19153282000001 -535.44979091723201
1.30505453000000 1.81479549000000 102.80110928000001 -535.41447243614505
0.86394863000000 1.79871329000000 108.65361366000000 -535.45351644952996
1.00004910000000 1.72824684000000 113.16586260000000 -535.46682547861099
1.53482466000000 1.73375886000000 108.13869874000000 -535.37293366737697
0.91689314000000 1.76116194000000  75.16588608000001 -535.44716166434716
0.84332436000000 1.80143336000000  94.35324552000000 -535.44809501257805
1.15207783000000 1.69382055000000  59.09380937000000 -535.39643621768403
0.94818479000000 1.64816313000000  79.89103439000000 -535.45064573071102
0.80316385000000 1.74311586000000 113.90005321000000 -535.43056847056403
0.93651102000000 1.71489603000000 106.47690867999999 -535.47046172256296
0.93133524000000 1.74229424000000 121.66646138999999 -535.45919339113300
1.14790573000000 1.70361187000000 122.70218250000001 -535.44044955685797
0.74470400000000 1.86318051000000 105.83685948999999 -535.38126823573691
0.94270558000000 1.70137016000000  90.19120500000000 -535.46672039784198
1.04161083000000 1.58989439000000 100.84886652000000 -535.46135748671998
0.99655252000000 1.84717364000000  96.66062140000000 -535.46340090516105
0.85677546000000 1.70698758000000  73.13961252000000 -535.42817898426199
1.05324102000000 1.67182965000000  82.22707994000000 -535.45189995748206
1.36605991000000 1.67989251000000  86.53771150000000 -535.39912988171500
1.17103289000000 1.71525991000000  77.00458514000000 -535.42943241315800
0.93085645000000 1.80266383000000  93.55516698000000 -535.46538980684704
0.82807787000000 1.77656993000000 105.18064389000000 -535.44416077361700
0.97205639000000 1.65667596000000 130.60901512000001 -535.45335079761298
1.16903369000000 1.68325481000000  89.80032983000000 -535.44231514863395
1.10993420000000 1.66512069000000 132.20003829000001 -535.43676195303999
1.14666943000000 1.62754700000000 113.29419774000000 -535.44742571339498
1.10765258000000 1.69128370000000  92.56927051000000 -535.45531750006796
0.84572907000000 1.62116724000000  85.26661747000000 -535.43821562503695
0.96036119000000 1.44829285000000 112.91693560000000 -535.43354473947295
0.97758932000000 1.51155580000000 108.78356934000000 -535.45342120670716
0.92277143000000 1.72306816000000  66.54073789000000 -535.42733609268316
0.92648707000000 1.83715251000000 112.68904145000000 -535.45847626844090
1.07871887000000 1.65191301000000  79.21588758000000 -535.44245687543798
0.99231356000000 1.72590263000000 128.20808317999999 -535.45332198533299
1.01105549000000 1.74428828000000  69.38523985000000 -535.43805384248003
0.92112546000000 1.56132571000000 110.33470267000000 -535.46151388322005
1.28238816000000 1.87575752000000 100.55043496000000 -535.41453486081298
0.83875773000000 2.15092838000000 105.78064396000001 -535.40682944463697
1.21167806000000 1.71650150000000 122.13205302999999 -535.42832212173005
1.09759786000000 1.49116572000000 104.31223427000000 -535.43452828091495
0.92999546000000 1.77354161000000 119.65552200000000 -535.45880359637897
1.11279033000000 1.69788408000000 141.35592907000000 -535.42203050848093
0.95345649000000 1.92241991000000 117.33653743000001 -535.44719109527603
0.92176253000000 1.79967563000000  84.78948579000000 -535.45948558055500
0.92807476000000 1.72063833000000 115.50949820000000 -535.46537637375502
1.10884305000000 1.71764769000000 124.18090223000000 -535.44513644183803
1.04467350000000 1.64435013000000  71.49831174000001 -535.43028155898298
1.04457735000000 1.75096998000000 123.77062405000000 -535.45270163090595
1.18461145000000 1.62265660000000 106.93663008999999 -535.44184495679099
0.84066267000000 1.70290075000000  83.48523256000000 -535.44045782701698
1.11420564000000 1.67786537000000 126.36448111000000 -535.44306051607100
1.34345662000000 1.75519770000000 106.91077353000000 -535.40919194014600
0.71203318000000 1.80416109000000 104.17974594000000 -535.35216430294395
0.78237460000000 1.66940676000000  96.63509227999999 -535.42180399465497
1.43242390000000 1.66177396000000 102.27064154999999 -535.39318544129799
1.41020405000000 1.67102619000000  87.08021974000000 -535.39017417409195
0.99981211000000 1.60922037000000  96.65587574000000 -535.46519078222195
1.02082859000000 1.73820613000000  93.34703512000000 -535.46682794216099
1.07366521000000 1.70841627000000  76.02516642000001 -535.44270724784701
0.95603836000000 1.62290044000000  70.92305322000000 -535.42745451870201
1.23556215000000 1.67874600000000 126.40712482000001 -535.42009985171705
0.97689052000000 1.87338513000000  70.89199848000000 -535.44266298664900
0.93929007000000 1.94011004000000 101.77708069000001 -535.45352594955898
1.18986719000000 1.64312349000000  96.34990343000000 -535.44027216715699
1.01941225000000 1.58398223000000 121.25760977000000 -535.45767817010505
0.84086929000000 1.79230280000000 105.72262447000000 -535.44784420197198
1.04940589000000 1.67444649000000  64.76903460000000 -535.41788212267693
1.32875489000000 1.69214734000000  75.06836991000000 -535.39475780697705
1.50622248000000 1.62327241000000  98.78891019000000 -535.37681901308497
0.80005035000000 1.64894510000000  97.40443328000001 -535.43219844792304
1.01133801000000 1.63511969000000 107.85199192000000 -535.46851854463205
1.23500716000000 1.70552643000000 116.37745386000000 -535.42884865975691
0.96316444000000 1.44019986000000 106.58252453000000 -535.42888521038299
0.78603225000000 1.74403064000000 100.66460596000000 -535.42436263492402
1.05732743000000 1.60888195000000  96.54600712000000 -535.45970429750002
1.03344148000000 1.85444644000000  95.51340669000000 -535.46000107329701
0.83090144000000 1.74954318000000  84.84190404000000 -535.43895951745901
1.02330467000000 1.83994472000000  96.53953266000001 -535.46219456303504
1.18277683000000 1.82412614000000 107.57774401000000 -535.43737819009095
0.98786687000000 1.74052307000000 125.18020270000000 -535.45621512364005
0.94068523000000 1.56450288000000 134.51593396000001 -535.44456628611294
0.97456886000000 1.58676886000000  79.24809037999999 -535.44008678221599
1.35427022000000 1.70007693000000  91.43240797000000 -535.40589894199297
0.97788563000000 1.76309301000000  66.73069171000000 -535.43402842245291
1.11926035000000 1.64302547000000  93.97894635000000 -535.45199877910397
0.95359322000000 1.70409657000000  84.65879820000001 -535.46180653932697
1.14664511000000 1.70130778000000  86.41212274000000 -535.44422528042401
0.95972890000000 1.50659304000000 116.06410744000000 -535.45126233319104
0.92639138000000 1.65424763000000  84.01340000000000 -535.45638288670295
0.75778198000000 1.64049228000000 116.79688772999999 -535.40094428845396
0.86033074000000 1.81155326000000 104.60998346000000 -535.45289294031897
1.04103040000000 1.90692400000000 103.91715682000000 -535.45328062968701
0.89533005000000 1.43908425000000 105.29917836000000 -535.42293562676002
1.08482281000000 1.68602965000000  56.89452083000000 -535.39412570802301
0.87364795000000 1.62921977000000 120.25232085000000 -535.45490703408905
0.97981823000000 1.77336312000000  82.20530929000000 -535.45978712123394
1.41912773000000 1.69929129000000 127.12947226000000 -535.38250025068805
1.33219972000000 1.84096956000000 101.09487977000001 -535.40700694676093
1.39492337000000 1.64726242000000  99.72227108000000 -535.39958372598403
1.00042857000000 1.75759678000000 120.49552215999999 -535.45937771070896
0.99574574000000 1.68323938000000 120.83760657000001 -535.46272569963298
1.09875109000000 1.70426744000000  76.33936405000000 -535.43962149239098
1.34448452000000 1.67139172000000  99.29558552000000 -535.41062236236098
0.99565985000000 1.75300671000000 140.11320216999999 -535.43454141111499
0.87233156000000 1.67381692000000  66.81378070000000 -535.41264593566905
0.84154588000000 1.67615512000000  84.92558090000000 -535.44137092056496
1.07839996000000 1.60936956000000 109.99853364000001 -535.45887337349916
1.30867241000000 1.72100009000000  95.07662888000000 -535.41726476938800
0.88828731000000 1.70525268000000 116.14641192000001 -535.46048050915601
0.94926758000000 1.51782298000000  63.52222420000000 -535.36869347623804
1.06310738000000 1.57823411000000 112.50437841999999 -535.45727996444998
0.90205607000000 1.82513485000000  97.89108666000000 -535.46145075632501
0.98942011000000 1.65815057000000  90.19653830999999 -535.46502789603903
0.89377249000000 1.58441369000000  82.29438661000000 -535.43937467215301
1.20491235000000 1.75987316000000 100.99773238000000 -535.43872168111693
0.97826137000000 1.78812003000000  83.72390769000000 -535.46105847834701
1.14413881000000 1.79564803000000  97.55311591000000 -535.44842516040205
1.29810075000000 1.66470081000000  92.95684617000001 -535.41740634951896
1.22794891000000 1.68890912000000 138.63271452999999 -535.40510460660698
0.95091034000000 1.81270836000000  78.71321322000000 -535.45468444974097
0.84037827000000 1.76883554000000 109.40490668000000 -535.44802914428203
1.09663800000000 1.84451194000000 108.88145528000000 -535.45017523883701
0.84809699000000 1.64947703000000 119.60549116000000 -535.44874776462098
1.27183275000000 1.74309720000000 101.28490384000000 -535.42557370564600
0.99981638000000 1.85987579000000 123.44654495000000 -535.44732552815117
1.27385982000000 1.68226777000000  66.28959197000000 -535.39208984212405
0.92740143000000 1.88875212000000 106.09683158999999 -535.45684508840202
1.06179407000000 1.68442481000000 130.30911540000000 -535.44601581410700
1.13667803000000 1.66784285000000  73.20411184000000 -535.42546086843402
0.94755125000000 2.02134677000000  77.49435714000001 -535.43972025149606
0.93793943000000 1.50005744000000  94.96273200000000 -535.44187284037605
1.00739530000000 1.75927233000000  82.91483638000000 -535.45959722024304
1.06262246000000 1.66677215000000 121.44559739000000 -535.45597373411795
0.97827481000000 1.65821775000000  85.80575564000000 -535.46070615722897
1.53528126000000 1.70813423000000 115.86827620000000 -535.37077166557003
1.01537036000000 1.74020458000000  70.86797930000000 -535.44059669505396
1.01241675000000 1.64651132000000 107.08301926000000 -535.46903905019803
0.99041383000000 1.67265291000000  77.68768799999999 -535.44952826023291
0.92942880000000 1.68405583000000 146.37324688000001 -535.42898188892491
0.92780837000000 1.71922114000000 120.97827097000000 -535.46091374616003
1.04990031000000 1.71245770000000  73.92283225000000 -535.44201835767603
0.98490766000000 1.78076494000000  95.41803993000001 -535.46816832732395
0.94677031000000 1.54839389000000 114.70060730000000 -535.45983051488804
0.95759089000000 1.65000260000000  94.97143969000000 -535.46854961002100
0.98555942000000 1.44949191000000  78.54750280000000 -535.38906713709400
1.01339207000000 1.64603847000000  98.86889893000000 -535.46825068599799
0.76676416000000 1.67121768000000 121.02200144000000 -535.40475771344893
0.95764194000000 1.61368471000000  97.95380971000000 -535.46739824259305
0.81023578000000 1.79436082000000 112.90413178000000 -535.43099739274805
1.07938209000000 1.70752399000000 143.04772753000000 -535.42410041717517
1.28105741000000 1.69134808000000  76.99034593000000 -535.40676760521001
0.98207268000000 1.78531947000000  99.00679882999999 -535.46854825646994
0.94994987000000 1.65941031000000  94.47138074999999 -535.46859022993397
0.83386338000000 1.62669739000000  93.87015339000000 -535.44431991360796
0.73603064000000 1.75391780000000 100.29059319000000 -535.38298403892804
0.82957392000000 1.70886752000000 103.30269019000001 -535.44832018154500
0.88440024000000 1.59163517000000  91.73162635000000 -535.45274718035103
0.90656108000000 1.58543526000000  97.20792577000000 -535.46018285071204
0.98404609000000 1.74546687000000  90.92191006000000 -535.46751113586697
0.85654111000000 1.61640116000000  86.82368588999999 -535.44330455532997
0.85931404000000 1.66487516000000  96.55283444000000 -535.45689906969596
1.00772299000000 1.51979872000000  88.81008011000000 -535.43908136114896
1.01950228000000 1.83637519000000 117.27308488000000 -535.45444148037916
0.84799635000000 1.68319866000000  79.49526247999999 -535.43586903148298
0.89715604000000 1.81936767000000  94.87605261000000 -535.46067859357004
0.94765435000000 1.45849944000000 135.05878236999999 -535.42314275347996
1.37798392000000 1.68236027000000 132.38958572999999 -535.38450545181001
0.87446810000000 1.71643072000000  77.48274692000000 -535.44206817934401
1.02866528000000 1.84742232000000 108.32171574000000 -535.45865537783197
0.97896259000000 1.54456547000000 138.05626569000000 -535.43771470492698
1.07733547000000 1.67735560000000 122.14910976000000 -535.45320534811401
1.17741403000000 1.62732222000000  93.39376255000001 -535.43972750135799
1.01065319000000 1.66278971000000  88.39710725000000 -535.46247171009998
1.11796192000000 1.69531055000000  91.81026730000001 -535.45325135476799
1.06154553000000 1.91446292000000  98.10516741000001 -535.45137067421899
0.93332518000000 1.66164668000000 107.71627363000000 -535.47038490184002
1.21198571000000 1.62042040000000 104.05417366000000 -535.43632531320100
1.03631518000000 1.57681994000000  93.13329105000000 -535.45508742876495
1.37079162000000 1.70206299000000 127.46317424000000 -535.39124077582096
1.11084821000000 1.84260401000000  99.27283504000000 -535.45083461817399
0.96839367000000 1.58915424000000 111.98064019000000 -535.46613397173201
0.98881633000000 1.51825558000000 107.82937671000001 -535.45454733141196
0.86078179000000 1.85634881000000 102.20088067000000 -535.44950291785199
0.95381277000000 1.67805434000000 107.31277718000000 -535.47144241244200
1.26021116000000 2.02477452000000 103.35780647999999 -535.40277329317291
0.85628165000000 1.71115345000000  73.42598123000000 -535.42895692114405
0.96158315000000 1.66489952000000  83.70183953000000 -535.45856287339097
0.82620205000000 1.74486499000000  99.87900987000000 -535.44560280304893
0.96788532000000 1.79892334000000  75.65123319999999 -535.45122923899896
0.95779686000000 1.65619349000000 107.72022499000001 -535.47115680659795
0.82663183000000 1.85360687000000 102.18414661000000 -535.43763867963196
0.93291359000000 1.57184132000000  98.14000591999999 -535.46126026773504
1.01678070000000 1.69865375000000  70.38970396000001 -535.43645806288805
1.00731692000000 1.57282634000000  97.09408406000000 -535.46010490654703
1.47829162000000 2.03282882000000 102.61086869000000 -535.35770151691395
0.96409184000000 1.96982945000000  92.00000353000000 -535.45168638325401
0.89805265000000 1.72037311000000 107.12158116000001 -535.46609666114500
1.18872693000000 1.55381853000000 107.53848610000000 -535.43330970895693
1.06121231000000 1.81919265000000  95.61954555000000 -535.45961337940196
0.96361283000000 2.15630121000000  71.22710515000000 -535.42376860465504
0.94799494000000 2.06670183000000  83.01939613000000 -535.43854033933496
1.00482707000000 2.01404339000000 114.06021643000000 -535.43842422401599
0.95020715000000 1.58091622000000 110.36027153000001 -535.46560089960406
1.21390509000000 1.67825535000000 111.98700363000000 -535.43615070805402
1.04309505000000 1.73078444000000 126.02694766000000 -535.45155355498798
0.98286506000000 1.94195867000000 106.80011775000000 -535.45214397491202
0.86047251000000 1.84419093000000 110.17083943000000 -535.44756383126901
0.90344639000000 1.67728514000000  93.09270926000001 -535.46458231043800
0.88770463000000 1.65950499000000  85.60148392000001 -535.45366390366496
0.97785585000000 1.91280873000000 111.03851283000000 -535.45318783446703
0.97437036000000 1.94882768000000  55.73325708000000 -535.41277871383204
1.08726379000000 1.72017382000000  80.80402411999999 -535.44831045943602
1.12484609000000 1.88515477000000 106.15560836000000 -535.44294968182999
0.98203245000000 1.62205048000000 117.26047984000000 -535.46550908399797
0.76991484000000 1.67239557000000  81.20063430000000 -535.39689135329604
0.85326279000000 1.57259831000000 109.02012080999999 -535.45055195419604
0.95861885000000 2.11948503000000  69.40581496000000 -535.42514815243999
0.96290568000000 1.77389193000000 101.87772409999999 -535.46938768807195
1.13575485000000 1.72242615000000 108.44398936000000 -535.45189595408795
1.04569022000000 1.95050505000000 109.49942014000000 -535.44544002507996
0.90227144000000 1.77551544000000  98.81836421000000 -535.46494402157100
0.91923755000000 1.74158001000000  73.91126872000000 -535.44459760171901
1.14332888000000 1.71302465000000 101.14239745000000 -535.45195027698799
0.99247317000000 1.58396558000000  76.31457267000000 -535.43284011433900
1.32469377000000 1.69350207000000  71.42587660000000 -535.39096431865596
1.03128255000000 1.68652360000000 115.08369390999999 -535.46441478641998
0.95226016000000 1.55763123000000 125.11091141999999 -535.45433691111998
0.95443092000000 1.48474223000000 105.33103918000000 -535.44526858837503
0.89864259000000 1.83330129000000  93.86374400000000 -535.45964168189903
0.84914757000000 1.82321586000000 104.70841960000000 -535.44841295932497
0.91135911000000 1.62926494000000 109.39044031000000 -535.46704743243004
1.02214900000000 1.85898347000000 106.42298929000000 -535.45896679949203
1.12363611000000 1.66427357000000 107.70633586000000 -535.45472379665500
1.11196392000000 1.73861403000000 107.41108115999999 -535.45574805264698
0.94951197000000 1.67864477000000 107.62871470000000 -535.47126700390800
0.98952317000000 1.60819112000000 111.74411225999999 -535.46721215076491
0.74130355000000 1.69865817000000 101.89842372000000 -535.39029997459897
1.03798650000000 1.74469238000000  90.56210222000000 -535.46364348458496
1.12150703000000 1.69680134000000  87.64749282000000 -535.44955804836491
0.89295031000000 1.68696576000000 103.22894678999999 -535.46644186670699
0.70203843000000 1.67089232000000 114.58103522000000 -535.34289505094398
0.99692893000000 1.53926294000000 114.00180099000001 -535.45765452072999
1.17030020000000 1.71609560000000 120.46677584000000 -535.43798026041895
1.01209057000000 1.64988052000000 103.01542151000000 -535.46937982481802
1.18993953000000 1.72514374000000 101.14350408000000 -535.44287132434499
0.85227145000000 1.52505224000000  97.21087574000001 -535.43692379399795
1.02198234000000 1.66055495000000  83.74219748000000 -535.45605259775516
1.02331453000000 1.63144415000000  89.97362249000000 -535.46050289546304
0.98415367000000 1.67604926000000  75.11689364000000 -535.44520426833799
1.04803689000000 1.73097869000000  79.68051875000000 -535.45201786469102
1.06455461000000 1.75563860000000 104.36385579000000 -535.46284072652395
1.10496374000000 1.72624938000000 116.57449790000000 -535.45238282338505
1.29888452000000 1.75278064000000 108.94365983000000 -535.41789098962704
0.91117551000000 1.73486618000000  87.16671946000000 -535.46176378059295
1.01328076000000 1.91037766000000 110.62023033000000 -535.45214609221500
0.82535615000000 1.59664069000000  90.40811496000001 -535.43395441663301
1.02026238000000 1.93961815000000 101.92638682000000 -535.45224746177098
0.91846290000000 1.57402053000000 113.19237692999999 -535.46220044368795
1.01820531000000 1.70087410000000 102.02759777999999 -535.46963869546096
1.03267727000000 1.77333237000000 109.07921605000000 -535.46392768704800
1.13363742000000 2.11497571000000 104.50017145000000 -535.41654915890695
0.82017319000000 1.75705783000000  89.10758203000000 -535.43802490813596
1.11253737000000 1.70392772000000  81.45811921000001 -535.44472776595296
0.86823302000000 1.71583660000000 111.20894790000000 -535.45867467415201
1.09675203000000 1.65834615000000 131.32013896999999 -535.44008461288092
1.10428378000000 1.72597546000000 125.51432950000000 -535.44401296759497
0.95271008000000 1.89391467000000  73.17036063000000 -535.44463962114401
0.94215779000000 2.00300281000000 103.26372468000000 -535.44596951327298
1.02206325000000 1.64770207000000  58.76423301000000 -535.39513609160804
0.90222095000000 1.58261042000000  84.51999475000000 -535.44437569913600
0.96640957000000 1.87542555000000  80.72622567000001 -535.45431146700400
1.25368080000000 1.55931758000000  98.65768752000000 -535.41872682543601
1.08728401000000 1.68966660000000  73.24653720000001 -535.43478829224091
0.98752767000000 1.47353317000000 124.07254754000000 -535.43725664270096
1.30506566000000 1.69092711000000  68.62830181000000 -535.39073593428805
0.97613946000000 1.61109100000000 129.87624413000000 -535.45343731277603
0.89161803000000 1.51343367000000 111.01080044000000 -535.44873260096801
1.33906226000000 1.70889258000000 104.07107882000000 -535.41221132740895
1.15440545000000 1.72224561000000  89.28196198000001 -535.44553174346800
0.89706851000000 1.86807757000000 110.64617050000000 -535.45298357217916
1.25155571000000 1.75673842000000 100.20057063000000 -535.42929498800800
1.05246879000000 1.65879872000000  58.65778199000000 -535.39645836142404
1.00848018000000 1.74850811000000 144.00893518999999 -535.42784334520900
1.11306472000000 1.69963401000000 104.87839236000001 -535.45718742915801
1.11803950000000 1.78472117000000 104.76112237000000 -535.45305634405804
1.03857547000000 1.58739542000000  95.12189411999999 -535.45819335780197
1.08686100000000 1.81683073000000 103.16187917000001 -535.45607455944901
1.05261464000000 1.66561630000000 119.27424802000000 -535.45913365958097
0.93342338000000 1.63091174000000  96.93137629000000 -535.46745486274403
1.00891594000000 1.71523452000000 103.54217595999999 -535.47008972317997
0.87488238000000 1.47244135000000 104.50559283000000 -535.43211304521503
1.43631987000000 1.73734867000000 106.61528165000000 -535.39133676207803
1.17724232000000 1.87559927000000 104.78135469999999 -535.43489053300698
0.86390356000000 1.66198053000000 112.04094880000000 -535.45815442456001
1.12930338000000 1.64092042000000 120.59181427000000 -535.44612405819498
0.97227470000000 1.63388871000000 119.01110656000000 -535.46495397379499
0.89304978000000 1.76107593000000 125.56773493999999 -535.44916972810802
1.14911137000000 1.61580473000000 101.46823834999999 -535.44780669881402
1.07174045000000 1.78682368000000 104.44620758000001 -535.46006928537690
0.88869070000000 1.54723576000000  92.02229695000000 -535.44561662524995
0.95671278000000 1.64396351000000  93.98398314000001 -535.46750880656998
1.09632525000000 1.74819490000000 116.03792975000000 -535.45305089765395
0.90244962000000 1.82228027000000 109.76353388000000 -535.45886946795702
0.98673454000000 1.80330545000000  89.44925078999999 -535.46454176970894
1.01540801000000 1.74594579000000 104.05679756000001 -535.46853029803594
1.08735288000000 1.62873468000000  98.06631387000000 -535.45818248229796
1.44757330000000 1.65715900000000 114.12296648000000 -535.38796117873903
0.96469684000000 1.95200313000000 115.00030834000000 -535.44594247397401
1.00370296000000 1.53692745000000 105.04350477000000 -535.45735743192995
0.96683725000000 1.91427479000000  76.44907225999999 -535.44770430763401
0.91598515000000 1.89219798000000 111.33687401000000 -535.45257021771397
1.19530017000000 1.57933375000000 104.42457970000000 -535.43555981169004
1.24118955000000 1.71633550000000  84.91698674000000 -535.42489338305700
1.29996263000000 1.76273787000000  97.31201562000000 -535.41864315567398
1.01400829000000 1.84983248000000 105.84996934000000 -535.46069426338897
0.90381971000000 1.66379492000000  70.30011181000000 -535.42749677686197
0.99129636000000 1.61112908000000 119.21343557000000 -535.46319451122497
1.31416305000000 1.70276884000000 132.29623235000000 -535.39649336442994
0.98473024000000 1.77562583000000  78.98057210000000 -535.45582806250491
0.92468287000000 1.75484131000000 125.35505808000001 -535.45389114625300
0.97584287000000 1.67481741000000  64.24550753000000 -535.41834138294803
0.97699101000000 1.51715588000000 113.39330241000000 -535.45429517153900
0.92127101000000 1.68821597000000  99.92370343000000 -535.46982379776716
1.04240056000000 1.70595575000000  85.80261579000000 -535.45910562002405
1.20043165000000 1.71640027000000  98.76020154000000 -535.44071391800105
1.14001777000000 1.65732016000000 120.78011734000000 -535.44430744550800
0.85570239000000 1.64622548000000 116.41460080000000 -535.45334894434200
0.90425166000000 1.48272890000000 101.68832322999999 -535.43916980674805
0.92223587000000 1.85902498000000 118.90563813000000 -535.45084512045605
1.02082759000000 1.67823010000000 138.67737532000001 -535.43908202481600
1.05950984000000 1.81383850000000  93.05887457999999 -535.45956790960997
1.05187378000000 1.67903424000000 104.43474953000000 -535.46613383884699
0.92802993000000 1.61812207000000 139.50917519999999 -535.44028920270603
1.03707843000000 1.65844208000000  95.94961769000000 -535.46552910960099
1.05499535000000 1.78955637000000 112.80250527000000 -535.45828623578802
0.92061303000000 1.80294779000000 114.44325118000000 -535.45988166142195
1.06252927000000 1.70471356000000  78.01389568000000 -535.44694135751502
0.92290767000000 1.59415453000000 113.82802706000000 -535.46437875432605
0.96530041000000 1.57300228000000 145.50105246999999 -535.43062239701396
0.86598882000000 1.60812688000000 106.37953515000000 -535.45785188828802
0.90685066000000 1.57136714000000  88.12684019000000 -535.44845573809516
1.10946224000000 1.77759508000000  94.50588557000000 -535.45475106054596
0.94894612000000 1.83532280000000  99.29630942999999 -535.46484235238495
0.99768162000000 1.58634613000000 136.46186105000001 -535.44282632565898
0.92321145000000 1.65730745000000 103.93823377000000 -535.46991956791305
0.89179638000000 1.53971135000000  96.91922335000000 -535.44950352410899
0.96886953000000 1.71200788000000 115.65398260000001 -535.46692816842699
0.83097483000000 1.74253103000000  99.07757795000001 -535.44758756325916
1.01992500000000 1.63058431000000  62.56751089000000 -535.40457614972900
1.06054288000000 1.72092752000000 120.69870432000000 -535.45555530651700
1.12418948000000 1.48944817000000 107.02395550999999 -535.43046034496797
0.97582909000000 1.66528031000000 134.49576510000000 -535.44806199876200
0.90303073000000 1.74170191000000 123.25914193000000 -535.45466306693902
0.93932375000000 1.74132935000000 118.27591906000001 -535.46285021685503
0.89643335000000 1.53611864000000 101.93286139000000 -535.45278434017200
0.83025762000000 1.75195270000000  88.99029593000000 -535.44244468322893
0.97202368000000 1.95797873000000 116.20134511000001 -535.44428642552703
1.05211486000000 1.64896110000000  78.56667199000000 -535.44420102313200
0.87961312000000 1.67517933000000  93.14118154000001 -535.46031165927798
1.03954848000000 1.66294461000000  94.75211485000000 -535.46485680905516
0.94639588000000 1.51265559000000  89.54664200000001 -535.43904042711301
1.03366820000000 1.59480483000000 104.12572428999999 -535.46355563805002
1.14294650000000 1.68495160000000 128.47006464000000 -535.43546806608094
1.49556548000000 1.79155566000000 100.43939399999999 -535.37785771366202
1.10606892000000 1.82251706000000  97.32635594000000 -535.45314555195205
0.71377635000000 1.65042367000000 100.04010952000000 -535.35974445631496
1.02034483000000 1.58485447000000  92.91229575000000 -535.45767788265300
0.94001995000000 1.86651069000000 121.94819975999999 -535.44836946154498
1.04592451000000 1.66867559000000  60.67092416000000 -535.40525216149399
0.99025364000000 1.69397772000000  90.30562292000000 -535.46670149750400
0.97650415000000 1.80077781000000 100.79463412000000 -535.46764980882801
1.04815070000000 1.72273064000000 110.40257600000000 -535.46427022620799
0.93735958000000 1.50390779000000 136.36473712000000 -535.43320058590200
1.02116910000000 2.03092323000000  95.52677798000001 -535.44299346257901
0.91584155000000 1.72612704000000  77.59302488000000 -535.45002940865402
0.84144123000000 1.66464174000000  94.43679160000001 -535.44997363422601
0.91224051000000 1.70796106000000 110.40798644000000 -535.46725663025290
0.95383587000000 1.51161066000000 146.92661670999999 -535.42142431855098
0.97526069000000 1.99041089000000 131.22138946999999 -535.42449045563001
1.09098529000000 1.60867568000000  99.56531749000000 -535.45644057655795
0.88938920000000 1.70429185000000  86.07547099999999 -535.45688121375804
0.96353368000000 2.04540867000000  56.35858386000000 -535.41220104129604
1.05099664000000 1.64899527000000  90.36846369000000 -535.45958912511696
0.96152610000000 1.60386124000000 122.42276834000000 -535.46095330542892
1.07892895000000 1.50363849000000 108.38221932000000 -535.44185344053699
1.00165965000000 1.67912896000000 142.79403531000000 -535.43427227431096
0.96720590000000 2.09354176000000  65.08367800000001 -535.42278166360097
1.42217794000000 1.70429139000000 129.57534283000001 -535.37904854782698
0.98079203000000 1.82235377000000 100.54571102000000 -535.46596542587201
0.94176494000000 1.56482012000000  69.01108836000000 -535.40646273541097
0.87370266000000 1.48144761000000  97.51055144000000 -535.42970864571203
0.96590461000000 1.48007179000000 115.35901551000001 -535.44427898426397
1.28588488000000 1.51626745000000 105.18113396000000 -535.40598082526003
0.81809815000000 1.69363093000000 115.46568554000000 -535.43943151927101
1.00753410000000 1.58097936000000 107.87351927000000 -535.46437395351404
0.97870996000000 1.71393930000000 137.61898864000000 -535.44164090004801
0.78406103000000 1.67110541000000  82.19296362000000 -535.40834726439004
1.01216699000000 1.81836475000000  90.56845936000001 -535.46297098142395
1.05783386000000 1.66014812000000 114.22807443000001 -535.46199191621395
1.12402639000000 1.70193065000000 113.64446388000000 -535.45201492042600
0.98966752000000 1.75084367000000  98.98119659000000 -535.47000526991803
0.95259126000000 1.74772642000000  98.15535061000000 -535.47033515837290
0.89294208000000 1.79531975000000  92.27145588000000 -535.46062262733096
0.79463639000000 1.83974573000000 101.88231340999999 -535.42268269224496
0.98613002000000 1.58934627000000 133.79963054000001 -535.44712989801405
0.94304841000000 1.57070718000000  76.29859490000000 -535.42889235760197
0.83151155000000 1.64330804000000 111.92507707000000 -535.44731796900805
1.09309810000000 1.83724419000000  99.44924614999999 -535.45404203908799
1.13413661000000 1.66482425000000 115.18199276999999 -535.44963364369198
0.97278877000000 1.73314306000000 108.64638533999999 -535.46985046181499
0.99773382000000 1.88932112000000 108.54502535000000 -535.45652446179292
0.97464877000000 1.83505460000000 126.44590817000000 -535.44721474179698
0.97921197000000 1.51075456000000 102.23074069000000 -535.45134193040894
1.14417349000000 1.65285819000000  84.37273188000000 -535.43959858490996
0.95965473000000 1.60657207000000 103.46794583000001 -535.46855722048201
1.06132036000000 1.66341238000000  93.71376402999999 -535.46172963253002
1.00193040000000 1.71102550000000  88.28537634000000 -535.46485057653899
0.98553507000000 1.96906321000000  96.31757931999999 -535.45177122471102
1.05228442000000 1.71601469000000  61.87533347000000 -535.41536090349496
0.80142083000000 1.97555309000000 105.94606834000000 -535.41017321489517
1.20684844000000 1.70816372000000 122.67361957999999 -535.42905641489699
1.33221787000000 1.67151833000000  89.30742780999999 -535.40806318931698
0.77192523000000 1.71999980000000 108.79908656000001 -535.41452952994405
1.30678342000000 1.69282431000000  74.60965190000000 -535.39860589736202
1.03598632000000 1.73630174000000  79.12329278000000 -535.45258895604002
0.93266941000000 1.88366469000000  95.06185927000000 -535.45949372557595
0.96078498000000 1.84632485000000 106.47409523000000 -535.46254502538000
0.98988051000000 1.85183416000000  94.75150312000000 -535.46306873529295
0.81282123000000 1.70448290000000  92.41185812000001 -535.43744372354297
1.07058268000000 1.80937256000000 112.40561803000000 -535.45498478472496
1.17121596000000 1.74379252000000 100.48337033999999 -535.44598502086797
1.46151163000000 2.03040406000000 102.57228587000000 -535.36121734743904
1.17961577000000 1.77662227000000 109.39177354000000 -535.44068821840494
0.94019319000000 1.92515345000000  92.02514678999999 -535.45548991723001
1.32595681000000 1.64317148000000 107.75497804000000 -535.41381471315117
1.01478785000000 1.74630803000000  60.47286701000000 -535.41639597110395
0.99531147000000 1.58371742000000 103.30233230000000 -535.46515110402004
1.06858840000000 1.62876337000000 125.26656952000000 -535.45096060833498
1.12235995000000 1.61685676000000 104.38521348000000 -535.45306603724998
0.98929929000000 1.44365934000000 114.60945196999999 -535.43083054393401
1.04586826000000 1.69018804000000  90.71027660999999 -535.46258114698196
1.22852449000000 1.66582257000000 111.97696267000001 -535.43313107695099
1.07835543000000 1.71516450000000  97.02951500000000 -535.46190557862406
0.96161204000000 1.43835179000000  86.43891478000000 -535.40259245699394
0.93742758000000 1.98187532000000 106.06533991000001 -535.44704559916795
0.93652944000000 1.72948186000000 105.99628740000000 -535.47008719497796
1.00678301000000 1.78182483000000 120.36456582000000 -535.45733490572002
0.87171306000000 1.95828970000000 106.02021697000001 -535.43996401317099
1.03083662000000 1.77386609000000  81.62630711000000 -535.45633999283291
0.76634272000000 1.55323430000000 107.67919565000000 -535.40350251747395
0.95569706000000 1.75463037000000  82.53197614000000 -535.46020656834901
1.07891021000000 1.66892582000000  86.51432283000000 -535.45366198315503
0.78458399000000 1.70583367000000 106.58245960000001 -535.42441799818403
1.32298942000000 1.77885188000000 100.28057387000000 -535.41324988827705
0.99607065000000 1.75130856000000 118.71334548000000 -535.46166027487004
1.02005335000000 1.68679927000000 108.54991345000001 -535.46862174494402
0.91072634000000 1.83114197000000 116.66613029000000 -535.45441353561796
1.16834778000000 1.78941868000000 105.58510006000000 -535.44347038022602
1.01330633000000 1.92418074000000 106.31887492000000 -535.45290030060403
1.50240686000000 1.52246143000000 104.69318312000000 -535.36665716747598
0.98451477000000 1.88530128000000 100.08818798999999 -535.46026831113500
1.17568183000000 1.77946513000000  98.84117550000001 -535.44351723606701
1.18399279000000 1.92888276000000 104.15784106000000 -535.42839283036199
1.52286394000000 1.50357160000000 105.38982772000000 -535.35952779788795
0.78795083000000 1.74524616000000 112.08358910000000 -535.42259155519901
0.92136221000000 1.52861920000000 111.06268980000000 -535.45577051959697
1.16727375000000 1.95971377000000 104.76178441000000 -535.42800640139706
1.06341432000000 1.85851905000000 107.49791625000000 -535.45418274364897
1.05365418000000 1.83915219000000 112.90116564000000 -535.45414977792302
1.06458871000000 1.98531231000000 102.19034701000000 -535.44250037427400
1.06422159000000 1.65739063000000 127.91635847000001 -535.44901157717402
1.00739326000000 1.93870089000000 110.07015895000001 -535.44970020100493
0.87379805000000 1.67762846000000 115.72815049000000 -535.45849326153291
1.09935074000000 1.71089806000000  85.98513181000000 -535.45199216811204
0.96995554000000 1.54634780000000  87.69441954000000 -535.44598745348299
0.98791092000000 1.86182548000000  87.03281434000000 -535.45955427097294
1.01879335000000 1.80425782000000  91.00819497000001 -535.46348160458899
0.86316605000000 1.64138033000000 114.14997574000000 -535.45665956023004
0.97370533000000 1.75252186000000  96.50008780000000 -535.46992632235003
1.41851754000000 1.71444609000000 111.64629442000000 -535.39395788162506
0.88293234000000 1.64543647000000  65.82610004999999 -535.40722338216005
0.92771611000000 1.86252898000000 102.65893364999999 -535.46066726704203
1.06912960000000 1.52414778000000  99.91495985000000 -535.44555976291701
0.98129384000000 1.68391545000000 129.27132906000000 -535.45426261213595
1.09858295000000 1.72253483000000  82.91979077000001 -535.44923034051101
1.01432573000000 1.66525685000000 110.46301201999999 -535.46838557973501
0.96427325000000 1.70489945000000  86.71054782000000 -535.46423660664300
1.09943037000000 1.63533622000000 115.48159275000000 -535.45470071018497
0.90700691000000 1.64512551000000  90.30637962000000 -535.46100156359500
1.28041338000000 1.79204797000000 104.58269333000000 -535.42085419177499
1.17526114000000 1.50037933000000 102.40845525000000 -535.42279845249595
1.16552569000000 1.69334279000000  84.56463045000000 -535.43864783986999
0.83988947000000 1.77332813000000  92.43335324000000 -535.44762897346300
1.40030290000000 1.59287621000000 100.54172665999999 -535.39459239346695
0.97286451000000 1.53483994000000 104.47359888000000 -535.45812038349595
1.08578129000000 1.82385781000000 104.02294087000000 -535.45546903411400
0.99694821000000 1.83281311000000 119.40826159000000 -535.45431843088500
0.95235887000000 1.47061911000000  67.84810538000001 -535.36356814544797
0.97162323000000 1.54679304000000 108.73742401000000 -535.46095501460798
0.96711431000000 1.55772655000000  78.53011386999999 -535.43161869308005
0.70824178000000 1.81980631000000  96.94439767000000 -535.34637028520501
0.80639133000000 1.72098910000000 112.63756916000000 -535.43428548055294
1.00961321000000 1.63101398000000 102.34462895000000 -535.46851099193600
1.00193456000000 1.67850702000000 123.47921366999999 -535.45991809810891
0.97136033000000 1.80041527000000  69.26308553000000 -535.44054502189999
0.85904522000000 1.73845654000000 106.97161027000000 -535.45683901397297
1.01494970000000 1.70444788000000 124.69074770000000 -535.45697249848297
0.91850273000000 1.51663016000000 109.83795823000000 -535.45298718165600
0.92848846000000 1.48645739000000  87.75831582000001 -535.42584771242605
0.84941428000000 1.63795811000000 125.23728220000000 -535.44399372734301
0.96871548000000 1.87038646000000  90.28545561000000 -535.46074865113997
0.96137519000000 1.74037363000000 103.68781593000000 -535.47086786856198
1.09089115000000 1.57640467000000 113.19680756000000 -535.45282196312496
0.87329499000000 1.76330387000000 103.72411382000000 -535.45995285920799
0.97351178000000 1.75365194000000  97.05720702000001 -535.47001877347395
0.92498436000000 1.73660755000000  59.94600349000000 -535.40985888779903
1.21573971000000 1.70243309000000  80.21764188000000 -535.42452405180200
1.00071135000000 1.62420773000000 113.73404549000000 -535.46673638754896
0.83099895000000 1.80052499000000 102.48226760999999 -535.44411603368303
1.09294761000000 1.87275031000000  97.80942755000000 -535.45109058306195
0.90566862000000 1.74377594000000  95.50481041000000 -535.46609935075605
0.95631259000000 1.78826874000000 103.57291419000001 -535.46815274121502
1.13042999000000 1.78901873000000  96.96732443000001 -535.45117006708199
0.78762250000000 1.69583250000000 119.57550701000000 -535.41972896440996
0.90780650000000 1.55932604000000  92.96044515000000 -535.45223718801606
1.25811144000000 1.68303576000000 110.59390802000000 -535.42769771051292
1.24082614000000 1.71470111000000  96.17376934000001 -535.43187633587900
0.71815142000000 1.71125225000000  83.67321434999999 -535.35341020615999
0.92821967000000 1.60659971000000 119.11757231999999 -535.46263470816098
0.91212493000000 1.64133030000000 123.02504620000001 -535.45915031630898
0.97833458000000 1.74673087000000 105.11214982000000 -535.47019961007504
1.14685705000000 1.66140462000000  94.26510406000000 -535.44843387614401
0.95778928000000 1.78497660000000  99.11308500000000 -535.46872292170201
0.96072311000000 1.75464590000000  64.74835093999999 -535.42833292289595
0.97944015000000 1.93542965000000 120.16501031000000 -535.44320826612602
0.84848669000000 1.85523468000000  98.38740248000001 -535.44619175745095
1.00032594000000 1.69625177000000  65.84189340000000 -535.42589092103594
0.96572131000000 1.85797980000000  81.86244197000001 -535.45636108563895
0.93826246000000 1.83371626000000 102.62065500999999 -535.46408464798105
0.99009365000000 1.73614221000000  79.70854391000000 -535.45629946642600
0.90705855000000 1.61025804000000 137.96198011999999 -535.44033264863299
1.03783990000000 1.78458509000000  97.55408774000000 -535.46470729010105
1.06051477000000 2.17565695000000  99.11219334000000 -535.42232392311098
1.01500736000000 1.74579072000000  74.67836370000001 -535.44775432501297
0.94249909000000 1.59019555000000 125.88357759000000 -535.45649738455597
0.94123123000000 1.59861742000000  75.21611655000000 -535.43262318479117
0.93417758000000 1.59989999000000 118.63235095000000 -535.46292084987999
0.84955120000000 1.70272183000000 108.08985663000000 -535.45496700912997
1.00580859000000 1.52447274000000 108.21975587000000 -535.45500555471904
0.92199075000000 1.66324247000000  83.75208264000000 -535.45637652013397
0.89004718000000 1.58187438000000  97.42656945000000 -535.45729057513199
1.22574584000000 1.70281900000000  82.89887603000000 -535.42560380512100
0.96199896000000 1.61813828000000 145.05337832000001 -535.43316522203293
1.37806312000000 1.67682324000000  73.76475454000000 -535.38207298541295
0.97814851000000 1.77158694000000 108.01321032000000 -535.46790069280303
1.02927617000000 1.56775209000000  85.89468110000000 -535.44517601603900
0.95404597000000 1.97141269000000 112.24728055999999 -535.44551100987201
1.13524594000000 1.69868006000000 140.17296761000000 -535.42001113781896
1.05138634000000 1.57899287000000  90.11933016000000 -535.45068796996600
1.00880339000000 1.80018108000000 110.05588530000000 -535.46347960850096
1.00844124000000 1.67498877000000  75.92743588000000 -535.44580903638996
1.04100456000000 1.87772021000000 106.40014186000001 -535.45536267011096
0.95239675000000 1.65786346000000  99.86885015999999 -535.47094525526893
1.19934000000000 1.71603449000000  90.92878825000000 -535.43793468479805
1.05252918000000 1.67397655000000  86.13568580000000 -535.45692056017799
1.26866001000000 1.86988882000000 102.39284068000001 -535.41760894977699
0.99245901000000 1.62278338000000 117.89150471000001 -535.46466714551696
0.87026260000000 1.66495017000000 115.51162850999999 -535.45791043005102
0.93607428000000 1.45858134000000  84.43448994000001 -535.40748496262700
0.96818195000000 1.58467460000000  92.99899908000000 -535.46019322606605
1.40775681000000 1.69892087000000  63.67318620000000 -535.36806468760699
1.04082364000000 1.71869421000000  71.86643635000000 -535.43945066042704
1.03033129000000 1.71517184000000 101.65596552000000 -535.46837045756695
1.48195975000000 1.67890449000000 115.68631329999999 -535.38083516828499
0.93088137000000 1.86649450000000 116.12415772999999 -535.45324873518098
1.07372450000000 1.85835259000000  96.14146692000000 -535.45504707532200
1.44620967000000 1.87481010000000 105.11223308000000 -535.37991801586202
0.96941089000000 1.73873321000000 104.15459803000000 -535.47086660600598
1.29660000000000 1.69568448000000 121.01005471000001 -535.41276201358596
1.02819398000000 1.60940469000000 110.61158103000000 -535.46485229487917
0.95768004000000 1.89863349000000 101.73506786000000 -535.45875072256092
1.29189814000000 1.70043766000000 103.57164824000000 -535.42219643525800
1.05792426000000 1.86715074000000  99.28689146000001 -535.45628728691895
0.97268103000000 1.76137810000000 110.89826207999999 -535.46730849081200
1.47055839000000 1.66373178000000  98.18064898999999 -535.38504376085200
1.29549929000000 1.68689003000000 104.46960278000000 -535.42141464503902
1.07003308000000 1.66353236000000 125.87039832000001 -535.45052408843901
1.00728721000000 1.63513624000000  92.40418597000000 -535.46424036921292
0.93443161000000 1.72983110000000 100.96428423000000 -535.47043720285797
0.99886213000000 1.88731230000000  93.36534285000000 -535.45937080856299
1.10338395000000 1.75171081000000  95.15448142000000 -535.45689015161497
1.00720252000000 1.69820986000000 125.36886327000001 -535.45703585506203
0.95379314000000 1.69508207000000  94.92958801000000 -535.47002571015400
1.29290697000000 1.64947470000000 108.75191139000000 -535.42065216508195
0.85734516000000 1.66852189000000 113.12810578000000 -535.45582663020900
1.05056717000000 1.69573160000000 138.35346625000000 -535.43579911206496
0.94937754000000 1.90441834000000  74.61984661000000 -535.44577731803895
1.07535385000000 1.57315536000000  91.43798552000000 -535.44803687352100
0.92788090000000 1.94657525000000 103.96881979000000 -535.45129191556805
1.04057742000000 1.68782140000000 110.85584227000000 -535.46574005376704
1.23136496000000 1.66660818000000 112.01022299000000 -535.43254414512717
1.31245342000000 1.69322764000000 101.38484527999999 -535.41790256401805
1.07416699000000 1.77482328000000 107.77599762000000 -535.45945241299000
1.22113645000000 1.70885569000000 114.26377991000000 -535.43298428621495
1.32866543000000 1.60146413000000 106.63032576000001 -535.41079677556695
1.15528425000000 1.71011579000000 104.41048748999999 -535.44963860612302
1.14926831000000 1.77916458000000  98.82882819000000 -535.44850489749001
1.16307607000000 1.61481931000000 107.05034040000000 -535.44543868469998
1.22899489000000 1.70440646000000  91.44226586000001 -535.43212331697396
1.32431747000000 1.66482779000000  89.28431293000000 -535.40932839342395
0.85020318000000 1.93656717000000 107.88362334000000 -535.43541732480298
0.92009954000000 1.59463316000000  76.20690387000000 -535.43227768945292
1.03326137000000 1.76200718000000 110.84354233000001 -535.46371819481897
1.00310420000000 1.72208692000000  83.12536273000001 -535.45976036098796
1.10935542000000 1.69509153000000  91.65086330000000 -535.45456263285996
1.04921033000000 1.74786031000000  79.27666447999999 -535.45171502053802
1.12648979000000 1.75667036000000  99.19608368999999 -535.45363353144000
0.84111414000000 1.73872724000000  91.99671603000000 -535.44896762661699
0.98137383000000 1.57780948000000  83.51516348000000 -535.44616424502999
1.08156374000000 1.48951610000000 101.30934839000000 -535.43490411715300
1.02558234000000 1.58928503000000 102.49927085000000 -535.46341139430695
1.03442110000000 1.63063255000000  95.74770891999999 -535.46389761841999
0.76231489000000 1.73506614000000 100.89973110000000 -535.40766229653002
0.72822720000000 1.60761678000000  94.85029889000000 -535.37032760210695
0.77904079000000 1.72177170000000  93.44584782000000 -535.41818103504295
0.86869866000000 1.78764146000000  98.39221396000001 -535.45748911461396
0.95469724000000 1.78297144000000  65.23626446999999 -535.43095692116492
1.06071444000000 1.60865341000000  95.38360670000000 -535.45852857641103
1.44678794000000 1.54639419000000 101.74167232000001 -535.37969225783797
1.06971681000000 1.72848734000000  86.30701625000000 -535.45679240570405
0.76309493000000 1.71160022000000 130.77800375000001 -535.38963531443198
0.90105592000000 1.64480335000000  91.37046893000000 -535.46113672228205
0.99407609000000 1.85104638000000 103.32809849000000 -535.46255608190097
1.01690568000000 1.47937258000000  98.82366783000001 -535.43710072234603
1.27750170000000 1.71189200000000  91.33594356000000 -535.42207678953298
0.93942294000000 1.80434808000000  61.73844686000000 -535.42235374628001
1.03608501000000 1.68828668000000 113.60810760000000 -535.46480818776195
1.13887876000000 1.68350225000000 102.21176779000000 -535.45285432620403
1.18691934000000 1.65825790000000 120.86037594000000 -535.43541627961702
0.87406502000000 1.78575576000000 118.24182426000000 -535.45074959919805
0.96046147000000 1.71362021000000  81.47343051000000 -535.45828761968505
0.96293143000000 1.74049482000000 129.12974374000001 -535.45196179379195
1.16632795000000 1.49748757000000 103.61824949000000 -535.42419788755797
1.17271595000000 1.73667500000000  99.77751632000000 -535.44588376683396
1.14949833000000 1.64169610000000 114.53697216000000 -535.44681343079401
1.39191991000000 1.69383383000000  94.04276751000000 -535.39945212153202
0.95890651000000 1.66117621000000  73.93796850000000 -535.44091523996804
1.26649527000000 1.65286566000000  97.20790277000000 -535.42555661514803
0.97488588000000 1.70136825000000 111.01841111000000 -535.46988293618494
0.97417669000000 1.61849650000000  89.66683833000000 -535.46135046413599
1.47499857000000 1.66458544000000 102.02094753999999 -535.38513074277603
0.88473017000000 1.55955864000000 100.03281995000000 -535.45432288357699
1.04883783000000 1.68292232000000  96.44638630999999 -535.46530765201999
1.03211548000000 1.52044991000000 108.14021535000001 -535.45182043583395
0.89280309000000 1.71598054000000 115.64656725000000 -535.46120140745495
1.03599497000000 1.70405277000000  86.81335654999999 -535.46069836471997
0.94935497000000 1.52428066000000  97.37733703000001 -535.45165529457699
0.90632165000000 1.54863023000000 112.62574818000000 -535.45753226228203
0.95174814000000 1.71737337000000  72.58703875000000 -535.44320216791800
1.05179861000000 1.62210893000000 110.37351253000000 -535.46317238479901
1.04590466000000 1.71026094000000  83.42930092000000 -535.45629109951517
0.97804563000000 1.65680310000000 113.84003353000000 -535.46867534247804
0.85001924000000 1.68946921000000  91.88921550000001 -535.45191703324201
0.74735251000000 1.84618564000000 102.59829707000000 -535.38643037523502
1.06674277000000 1.62643105000000  99.78082577000001 -535.46156146335898
1.34926910000000 1.69862283000000  75.18128387000000 -535.39122740064397
1.01400465000000 1.59475702000000  83.78326085000000 -535.44833365736201
1.25303213000000 1.78956082000000 100.02620812000001 -535.42733848881699
1.21475695000000 1.48351587000000 101.97927278000000 -535.40974285697098
0.98845312000000 1.42620875000000 124.21629315000000 -535.41973185421796
1.39842065000000 1.85449116000000 103.17603916000000 -535.39180846713202
1.00507197000000 1.70363069000000  76.38613663000000 -535.44913322528203
1.32267231000000 1.58730280000000 101.56346206000001 -535.40990172744716
0.92930408000000 1.75020489000000 100.36165932000000 -535.46930399354301
1.27936022000000 1.68062214000000 129.32949020000001 -535.40781000876405
0.97214643000000 1.66643002000000  99.43810123000000 -535.47120024989204
1.14162471000000 1.83236777000000 102.23038852000001 -535.44603989447501
1.02280385000000 1.63517618000000 111.79418665000000 -535.46639795399904
1.05385108000000 1.71665958000000 124.17881079000000 -535.45307510359396
1.08541396000000 1.52075674000000 104.88470552000000 -535.44458847874603
0.85244605000000 1.71317156000000  87.02231770000000 -535.44887517066093
0.99693287000000 1.73491572000000 143.56648779000000 -535.43029354820499
0.68299540000000 1.70465820000000 123.38345528000001 -535.30727661437504
0.97282490000000 1.52555686000000  83.13597407000000 -535.43216297587196
1.00684180000000 1.75607801000000  70.40590269000000 -535.44087104063203
0.90274906000000 1.72460463000000 121.43335801000001 -535.45749581658004
0.98919343000000 1.67932899000000  87.52176639000000 -535.46368084918799
0.99634301000000 1.90892544000000  99.68193169000000 -535.45749162449397
0.84349071000000 1.59454056000000  94.43137151000001 -535.44477942282595
0.92403158000000 1.89718061000000 111.81065731000000 -535.45254236192795
1.14098859000000 1.68250239000000  81.34075967000000 -535.43868100149496
0.88791302000000 1.72634313000000  81.23880593000000 -535.45119553747202
1.03001553000000 1.64543998000000 119.61069684000000 -535.46119859229100
0.96791517000000 1.47202446000000 110.49745805000001 -535.44220675380302
0.84199590000000 1.67615547000000 105.57495003000000 -535.45324790639302
1.04598095000000 1.73762262000000 107.89228611000000 -535.46495615179902
1.50411566000000 1.70045506000000 103.17938255000000 -535.37996872706697
1.00694132000000 1.56239511000000  80.01679054000000 -535.43511132493200
0.83207798000000 1.64976778000000 128.49272169000000 -535.43438713602700
0.95009571000000 1.81626022000000  87.91804375000000 -535.46295366142203
1.30560465000000 1.94672802000000 102.18890757000000 -535.40226013247798
1.43954214000000 1.58676246000000  99.52689574000000 -535.38593818153402
1.11913482000000 1.71959393000000 116.14950235000001 -535.45063587734205
0.91029022000000 1.80647952000000 109.56413182000000 -535.46144150364501
1.11677856000000 1.64122080000000 112.54441222000000 -535.45361674421099
1.10136951000000 1.87242824000000 106.72654529000000 -535.44779298084302
0.92971430000000 1.79036557000000  85.26781801000000 -535.46095435824202
0.85934084000000 1.72236414000000  99.78071196000000 -535.45810265711896
0.74095758000000 1.55927591000000 107.60421952000000 -535.38268288259292
1.01049496000000 1.53706612000000 117.85747108000000 -535.45462355577797
0.91781495000000 1.56922697000000 112.41590669999999 -535.46180745274296
0.98179619000000 1.70625554000000 109.03119289999999 -535.47042040941801
1.18978957000000 1.70519179000000 115.59062237000001 -535.43847552477803
1.03644620000000 1.69944703000000  96.69659964000000 -535.46697950077692
0.94094269000000 1.85243323000000  73.81914073000000 -535.44656095961102
1.01707740000000 1.67753407000000  73.78467816000000 -535.44143318269005
1.20846723000000 1.69791571000000  86.49567130000000 -535.43241736174298
0.99980657000000 1.68331976000000 108.30365288000000 -535.47017864288796
1.04916679000000 1.77017513000000  95.65711813000000 -535.46383980685005
1.21887891000000 1.74531309000000 111.95164323000000 -535.43337681208800
1.05401819000000 1.73268243000000 133.12035373000001 -535.44112213478797
0.93554521000000 1.86759668000000  84.21085999000000 -535.45651559404405
1.07966279000000 1.68901150000000  72.12123502999999 -535.43354133594596
0.90174361000000 1.57238930000000  84.61338301000001 -535.44239691753501
1.15346609000000 1.71759946000000 122.40473369999999 -535.43921594688595
0.92172728000000 1.81073966000000 117.79171479000000 -535.45660820345802
0.89341065000000 1.67313149000000 109.65942892000000 -535.46544026130198
1.04244527000000 1.69000934000000  70.25713645000000 -535.43357484244302
0.91497233000000 1.86941355000000 108.15417741000000 -535.45670644562495
1.08797414000000 1.71967238000000 108.68066417999999 -535.45977050217800
0.78269045000000 1.74335204000000  86.70878814000000 -535.41527185774316
0.83008278000000 1.81859889000000 108.41657244000000 -535.44039512452105
0.84799138000000 1.73987058000000  89.71899457000001 -535.44980907303898
1.01796053000000 1.55662217000000  95.44297688000000 -535.45514132658798
0.93880343000000 1.89803335000000  90.83762268000000 -535.45768780645994
0.92975443000000 2.01587825000000 110.41552910999999 -535.44008954106198
0.81740877000000 1.64506863000000 127.09802252999999 -535.42972322075298
0.95172712000000 1.75247089000000 116.23713540000000 -535.46428016685297
0.98509920000000 1.84857357000000 108.28690931000000 -535.46128309981202
1.20866526000000 1.71527987000000  90.74308488000000 -535.43595161245696
0.87144509000000 1.68505376000000 114.17028071999999 -535.45878435258396
0.92942712000000 1.78301424000000  74.71056093999999 -535.44799423696099
0.97872401000000 1.59843686000000 101.52332303999999 -535.46709789817100
1.05889469000000 1.65696582000000  98.02612809000000 -535.46382614303502
0.88898711000000 1.80940258000000  93.40221185000000 -535.45949394972695
0.94986602000000 1.71184162000000  75.40716523000000 -535.44822122090090
1.14282326000000 1.77224608000000 111.69923527000000 -535.44665774207101
0.94987721000000 1.70276934000000  88.48672562000000 -535.46559882817201
0.74870834000000 1.61459131000000  99.46492545000000 -535.39404194867495
1.07550274000000 1.56802859000000  96.30612995000000 -535.45141894801600
1.36127624000000 1.67821862000000 126.14361674000000 -535.39510535502302
1.00249710000000 1.66651350000000 143.90160209999999 -535.43289566385295
0.86582614000000 1.59863531000000  87.19271270000000 -535.44390497582401
1.03058749000000 1.79980749000000 102.58882842000000 -535.46434032046398
0.85329592000000 1.63504142000000 121.88057676000000 -535.44831683560403
0.91799117000000 1.69525437000000  77.76953080000000 -535.44889993826905
0.97039253000000 1.64411961000000  60.05768956000000 -535.39808316166295
0.81780202000000 1.69023534000000 109.06222914999999 -535.44253143738899
1.39630850000000 1.53522554000000 105.76871727000000 -535.38831365356600
1.52667506000000 1.67971744000000 100.25723567999999 -535.37569793325099
1.00782803000000 1.63704354000000 122.99321873000000 -535.45996703632397
1.25060398000000 1.69949144000000 132.04413479999999 -535.40967824103996
1.17681274000000 1.43914092000000 102.05736457000000 -535.39987120961098
0.86702634000000 1.78178851000000  87.99729189000000 -535.45309115863597
0.98895947000000 1.56962182000000 102.53228335999999 -535.46329926444605
0.85725376000000 1.96288954000000 103.35715876000000 -535.43647112305996
1.26459648000000 1.71190445000000  83.10350176999999 -535.41822804963294
0.94404732000000 1.83269951000000  99.82157648000000 -535.46483716933403
1.19385137000000 1.69238076000000 105.76006323000000 -535.44216945599101
0.93892506000000 1.59879193000000 112.61862390000000 -535.46628882834295
0.89613560000000 1.55807858000000 103.25175487999999 -535.45744606419396
1.24623001000000 1.69641829000000 103.68689114999999 -535.43174451032598
1.03129421000000 1.60466383000000 117.39719445000000 -535.46098252141599
0.89105332000000 1.63371546000000  65.57744723000000 -535.40576553548397
0.95336425000000 1.88611114000000  88.40368586000000 -535.45845688515601
0.80840734000000 1.72492663000000  96.70684541000000 -535.43719371488100
0.84376484000000 1.69399025000000  78.54510858000000 -535.43351394465799
0.92668504000000 1.89023970000000 121.55279184000000 -535.44524804914295
0.90336878000000 1.70459046000000  71.82543087000001 -535.43578907583503
0.95603254000000 1.49432644000000  86.02395559000000 -535.42698533565499
0.80439179000000 1.63841089000000  86.77599067000000 -535.42431570501799
1.27549064000000 1.66617007000000 120.38473206000000 -535.41799022458497
1.15149667000000 1.48570557000000  98.06901451000000 -535.41970831123297
1.41829315000000 1.65291321000000 102.04542213000001 -535.39565376043799
1.07889324000000 1.73009076000000 100.75539050000000 -535.46215424076092
0.82357846000000 1.76036614000000 108.89840153999999 -535.44209786930799
0.99038572000000 1.76399559000000 115.50253574000000 -535.46369755554099
0.95369704000000 1.96720313000000 115.32976838000000 -535.44369927594300
0.89556088000000 1.74432250000000  80.00259714000001 -535.45124406877517
0.99727216000000 1.49377276000000  94.83527282000000 -535.43942900389698
1.12541541000000 1.70387862000000 116.15951927000000 -535.45007297582902
1.12116499000000 1.71968154000000  95.53362679000000 -535.45469874365904
1.05628316000000 1.67328466000000  68.57202927000000 -535.42666442920199
0.89626728000000 1.51847318000000  93.81457881000000 -535.44176415395600
0.93621422000000 1.55107734000000 136.91581024999999 -535.43995082980405
0.79281664000000 1.67808427000000  78.95455653000000 -535.40891545873103
1.07286679000000 1.72071255000000  95.26395124000000 -535.46205226816699
0.99135407000000 1.83625940000000 113.76898060000001 -535.45893833196999
0.86121984000000 1.57626066000000 105.42937636000001 -535.45322599712802
0.94149075000000 1.48982749000000 122.67282238999999 -535.44323106932598
0.95626472000000 1.56776997000000  91.18274804000001 -535.45527039927697
0.97538408000000 1.86112877000000  72.63984773000000 -535.44561746816896
1.05896526000000 1.73239053000000  74.76211325000000 -535.44359417554801
0.79791829000000 1.78943270000000  94.29519358000000 -535.42792143848703
0.84659253000000 1.60060556000000  88.15086805999999 -535.43977743585901
0.78601008000000 1.71803035000000  87.88719558000000 -535.41863480010898
0.93270470000000 1.59076391000000  74.34775011000001 -535.42809611892403
0.95488124000000 1.74228931000000  56.83776476000000 -535.40305410241695
0.93697579000000 1.75450392000000  70.61143767000000 -535.44037346499692
1.01075870000000 1.69098891000000 132.83237789000000 -535.44782502671603
1.47641220000000 1.70858137000000 104.70347167000000 -535.38487150110996
1.14397964000000 1.76998563000000 110.51331891000000 -535.44723753415292
0.82655651000000 1.69844802000000 112.38459552000000 -535.44482003336600
0.81648097000000 1.67308100000000  89.85217629000000 -535.43635654157902
0.98441781000000 1.87026375000000  99.34059533999999 -535.46180571351897
0.76594600000000 1.68587560000000  65.82245671000000 -535.35921011881203
1.08287791000000 1.78730433000000  97.25110236000000 -535.45891381094100
1.13860461000000 1.65429867000000 122.89476268999999 -535.44258528514695
1.00124097000000 1.73349742000000 104.46598118999999 -535.46993171146198
1.06393390000000 1.66589467000000 111.09978249000000 -535.46282102599400
1.01634255000000 1.63223847000000  90.10490762000001 -535.46127640906400
1.01922712000000 1.64920794000000 112.91518687000000 -535.46664922193690
1.22357558000000 1.65512387000000 115.91390040000000 -535.43184256975701
0.97272711000000 1.75107352000000 100.79554950000001 -535.47055849181595
0.78157510000000 1.67416807000000 122.21058444000001 -535.41419519333897
1.09657483000000 1.68759037000000  84.36627734000000 -535.44984451253504
1.05127149000000 1.73631771000000 116.37537654000000 -535.45963088518101
1.02534639000000 1.66092314000000 102.46360464999999 -535.46861347309903
1.00130097000000 1.58802066000000 115.85965419000000 -535.46306594938505
1.00469510000000 1.91269810000000 110.66474139000000 -535.45241288026295
1.06022312000000 1.74667625000000 108.95880006000000 -535.46241423266304
1.31788163000000 1.68269012000000 108.08218599999999 -535.41611516218597
1.12070132000000 1.72336912000000  76.93008935000000 -535.43821746076605
0.83302600000000 1.90365979000000  99.03026097999999 -535.43561517940202
0.94898384000000 1.70668123000000 117.02686725000000 -535.46592332659804
1.12815018000000 1.69168014000000 126.41562240000000 -535.44033318773802
0.90670375000000 1.70599030000000 115.07951041000000 -535.46406835096002
1.16692455000000 1.72411183000000 107.72382168999999 -535.44634127059999
0.90210203000000 1.79623917000000 106.24084295999999 -535.46256422596798
1.20542529000000 1.62782871000000 111.84772289999999 -535.43674360912496
0.97628290000000 1.57963670000000 142.45845689000001 -535.43513253907201
1.05411246000000 1.69127412000000 120.17905030999999 -535.45785552040491
1.03122745000000 1.72322800000000 121.36385866000001 -535.45813151736400
1.18574546000000 1.72024775000000 119.57959701999999 -535.43564178439499
1.00466133000000 1.78322377000000  94.93669380999999 -535.46699812822317
0.93484687000000 1.61208469000000 123.38208002000000 -535.45983303004402
1.20864523000000 1.69896007000000 124.91628430000000 -535.42667274299697
0.92532420000000 1.88938632000000 107.12172455000000 -535.45614790186198
0.92559535000000 1.76111680000000  59.04452160000000 -535.40983764517603
1.04965429000000 1.55306806000000 101.40737496000000 -535.45500116136202
1.35267839000000 1.75220449000000 103.68215922000000 -535.40811090147997
0.98708384000000 1.70294950000000 113.35199573000000 -535.46826250805202
1.21486437000000 1.60043726000000 104.14516707000000 -535.43402883650401
1.30822428000000 1.72392352000000 107.59066310999999 -535.41759245602202
0.86823988000000 1.70037431000000 102.37483037000000 -535.46113856073998
0.98731151000000 1.63476594000000 100.98122143000001 -535.46974129362093
0.86991408000000 1.87159018000000 103.24983216000000 -535.45019806748996
1.20931155000000 1.85151259000000 103.12531778000000 -535.43128292823599
1.13062763000000 1.59265858000000  96.64721450000000 -535.44663231496997
0.98330168000000 1.60327881000000  94.14701758000000 -535.46350827073400
1.13247629000000 1.70183941000000  86.59209253000000 -535.44690254760803
1.04279258000000 1.57721746000000  92.91028853000000 -535.45426081770995
1.11131174000000 1.46416526000000 105.21552681000000 -535.42355751265598
0.98563708000000 1.72749996000000 101.79689368000000 -535.47109590772300
1.07877269000000 1.68176562000000 125.21985208000000 -535.44977826744798
0.95975026000000 1.70543920000000 125.78980713999999 -535.45786670701898
1.21013976000000 1.62226222000000 104.03173414000000 -535.43682968248493
0.99270818000000 1.70142398000000  88.49597713000000 -535.46528804928892
1.18285217000000 1.71743145000000 116.02645462000000 -535.43914241133803
1.09848889000000 1.71481620000000  79.71954454999999 -535.44510179637405
1.00166462000000 1.82141275000000  90.27161311000000 -535.46330223951497
0.98411672000000 1.77600186000000 103.41356831000000 -535.46878157425499
1.06166195000000 1.76863915000000 102.73747013000001 -535.46280970374801
0.98666396000000 1.86527611000000  74.78394259000000 -535.44822753873598
1.20254884000000 1.68799604000000  95.99271329000000 -535.43943963439597
1.22202293000000 1.51434525000000 104.33262946000001 -535.41815626904895
1.03849804000000 1.67674511000000 138.80002708999999 -535.43717656504600
1.27759210000000 1.77615954000000 104.17006314000000 -535.42251517937405
0.86352477000000 1.60602658000000  92.87215487000000 -535.45098188065697
1.08684953000000 1.80218919000000 103.41291617000000 -535.45711206481997
0.98306362000000 1.70953101000000 102.41214758000000 -535.47157650531199
1.02471188000000 1.74623859000000 122.78204318000000 -535.45604479849203
0.88862813000000 1.70216498000000  98.20276898000000 -535.46492904352203
0.98431548000000 1.68341132000000  90.52674903000000 -535.46675452034299
1.01162960000000 1.57446997000000  79.49036857000000 -535.43666038291883
1.06923876000000 1.68725288000000  74.42540102000000 -535.43892463330803
1.00801398000000 1.60021573000000  82.94883844000000 -535.44831762255501
1.22287661000000 1.90980784000000 101.95725390000000 -535.42330057885601
0.87633609000000 1.43427920000000  93.27739954000000 -535.40419524656704
1.23911671000000 1.75365904000000 104.72913831000000 -535.43157670510004
1.04450625000000 1.62512523000000  84.11028075000000 -535.45073913372096
0.95321958000000 1.63482124000000 107.40279049999999 -535.47041355652198
0.88036275000000 1.79286063000000 116.51139572000000 -535.45300503292594
0.86412881000000 1.47180869000000 104.35671803000000 -535.42923126577602
1.10127742000000 1.76194886000000  95.39389758000000 -535.45694813627802
0.91069913000000 1.66421769000000 145.18732233000000 -535.43002221149698
1.01488484000000 1.68373943000000 100.93496222000000 -535.46979899750602
0.97431521000000 1.78509052000000  90.61609274000000 -535.46630711433295
0.71450524000000 1.59874824000000 101.41350950000000 -535.35773513327001
0.87310444000000 1.67844328000000 110.45422852999999 -535.46107925306603
0.97045118000000 1.54617456000000  98.34452413000000 -535.45758371670695
0.72840405000000 1.99906932000000 105.24149675000000 -535.34879357802402
0.79273148000000 1.71941467000000 107.52548738000000 -535.42881663370599
1.08034315000000 1.70654110000000 112.58384150000001 -535.45946247268500
0.90199343000000 1.53929200000000  99.33548926000000 -535.45281581037398
0.95560219000000 1.80810159000000  94.67328655000000 -535.46656557353401
0.83383896000000 1.76028808000000 101.68514227999999 -535.44802931158097
0.99334366000000 1.83202188000000 122.52758008000001 -535.45142464350897
1.27048169000000 1.65036766000000  97.03681129000000 -535.42452631890603
1.03947726000000 1.72850406000000 108.28269166000000 -535.46589821253804
0.97251102000000 1.75173830000000 113.33624291000000 -535.46648307680698
1.03045745000000 1.82333960000000  91.46782346000001 -535.46156040589597
0.78194447000000 1.70449357000000 138.81063463000001 -535.39283297232703
1.34094178000000 1.70723393000000  92.91501418999999 -535.40957624198199
1.12171647000000 1.55257254000000 102.00300770000000 -535.44450795467696
1.28809703000000 1.68987946000000  62.07625081000000 -535.38442592341903
1.20728070000000 1.75493250000000 103.69192102000000 -535.43820904514496
1.00572056000000 1.72583873000000 130.09393186000000 -535.45018760742801
0.92489939000000 1.85523919000000 105.47139219000000 -535.46029947726799
1.07011091000000 1.62883250000000 118.49574431000001 -535.45680500157903
0.94918708000000 1.94256844000000 114.35451749000001 -535.44718441733698
1.06869397000000 1.74514461000000 100.08425369000000 -535.46306893591293
1.05443662000000 1.70341903000000  80.36593439000001 -535.45119822397396
1.01613841000000 1.93635987000000 103.73442546000000 -535.45236763778803
1.37175561000000 1.68694121000000 123.29373379000000 -535.39574543034598
1.05864923000000 1.93935502000000 109.12015946000000 -535.44544284051005
1.04829567000000 1.60245241000000 122.62186688000000 -535.45491248955602
1.39344873000000 1.68379037000000  86.81191968000000 -535.39395246073695
0.99607852000000 1.86954222000000  89.08585078999999 -535.45968836368695
1.01138829000000 1.64227824000000 100.35591451000001 -535.46863887191205
1.20949321000000 1.69047926000000  94.50816598999999 -535.43746746408704
1.22148467000000 1.84843422000000  99.25613328999999 -535.42967940885706
0.91236831000000 1.62423183000000  87.07769521000000 -535.45597366789502
0.97907984000000 1.57037373000000  70.49527467000000 -535.41437729680001
1.01581079000000 1.92955766000000 107.08567064000000 -535.45177318982098
1.04034189000000 1.47855452000000  97.38125663000000 -535.43326463178005
0.94068676000000 1.96832048000000 105.48292383000000 -535.44909178847900
0.84799788000000 1.74694361000000  94.33034859999999 -535.45234272760899
0.94317437000000 1.97034465000000 103.94112446000000 -535.44960451853797
0.91284121000000 1.67010568000000  82.84070628000001 -535.45460547100697
1.30866594000000 1.66148644000000 108.40565829000001 -535.41775828955599
0.97022449000000 1.58597280000000  91.27851883000000 -535.45864057459403
0.94760990000000 1.81723487000000  67.52050780000000 -535.43657504603902
0.96860675000000 1.63814834000000 135.47860277000001 -535.44706875977101
0.97543044000000 1.70528144000000 103.81278983999999 -535.47177485393297
1.05607222000000 1.70195724000000 121.22204494000000 -535.45635913826698
1.03290383000000 1.58094197000000  85.87074780000000 -535.44745998901601
0.97501317000000 1.58504900000000 104.88564430000000 -535.46635013722198
1.05274076000000 1.66128192000000 137.89925173000000 -535.43717716090396
0.99078225000000 1.96595655000000 122.46008140000001 -535.43711463432498
0.92940849000000 1.81972007000000  80.49909392000001 -535.45521956400603
1.03673905000000 1.62962666000000 129.40468801000000 -535.45028989510001
0.94077006000000 1.75505749000000 110.06991472000000 -535.46757761130198
0.91794674000000 1.69277341000000  55.78215038000000 -535.38627604294800
0.77871312000000 1.72839790000000 117.94865468000000 -535.41355954472897
0.97831547000000 1.69318233000000 121.41364114000000 -535.46264912494701
0.98446751000000 1.66639902000000 132.40005676000001 -535.45057612231801
0.96305028000000 1.63401327000000 128.37403337000001 -535.45603528743197
0.93534751000000 1.69079245000000 102.17267705000000 -535.47117985950092
1.13560357000000 1.68382401000000  66.67459681000000 -535.41465171930395
1.29682580000000 1.79716528000000 105.09088883000000 -535.41694271025597
0.98663966000000 1.84147889000000  88.28839524000000 -535.46168121185997
1.01183590000000 1.59689927000000 130.58352998999999 -535.44991275050097
0.90196314000000 1.63084117000000 102.81472727000001 -535.46625845795802
1.07064485000000 1.55922701000000  95.97279245000000 -535.45024055370197
1.03610845000000 1.68458403000000  77.95540214000000 -535.44821960433103
0.92158783000000 1.56557974000000  74.51563815000000 -535.42109028338496
1.46445606000000 1.69894917000000  81.09208657000001 -535.37501747370891
0.96849328000000 1.93125668000000 121.28639620000000 -535.44265847718304
0.96876605000000 1.47525795000000 120.46430846000000 -535.44068623882004
0.97291699000000 1.70252359000000  54.57431457000000 -535.38896950972401
1.13366511000000 1.78775470000000  95.97653772000000 -535.45051300789896
1.00478550000000 1.58476658000000  96.87880134000000 -535.46196061128501
0.95952855000000 1.46842117000000 101.29372256000001 -535.43737532690204
1.17156919000000 1.59365698000000 104.03701888000001 -535.44185844101696
0.77106682000000 1.74802815000000 111.96081891000000 -535.41091559763697
1.18598751000000 1.54450350000000 105.99474576999999 -535.43212965384703
1.12982827000000 1.80061777000000  96.96597502000000 -535.45060212231397
0.89283463000000 1.93676221000000 106.00326975999999 -535.44701580542301
0.77322207000000 1.66381629000000 123.40988836000000 -535.40751518849504
0.80052092000000 1.72758758000000  77.23475344000001 -535.41330728006403
0.84038334000000 1.68555982000000  71.52452196000000 -535.41682943867397
1.11190450000000 1.58357621000000 100.94661736000000 -535.45067179718717
0.99487364000000 1.64625581000000  69.56045464000000 -535.42852797311502
0.94038455000000 1.93281265000000 120.55978408999999 -535.44242079520404
1.43932486000000 1.67162800000000 114.55554393000000 -535.38933437256492
1.08854042000000 1.82017696000000  96.66078901000000 -535.45595017689902
0.85594739000000 1.73780630000000 103.36542879000000 -535.45666074053690
0.86817477000000 1.78156383000000 118.95965132000001 -535.44902753585200
1.29085200000000 1.69623090000000 110.78145001000000 -535.42070146484900
0.89586488000000 1.68885396000000  89.38813132999999 -535.46087013853901
0.94389381000000 1.67168745000000 103.55385572000000 -535.47151868108199
1.04168721000000 1.72114552000000 106.23751084000000 -535.46653137038493
0.96847463000000 1.64761542000000 134.28361452999999 -535.44869389208600
1.40399047000000 1.79371317000000 105.10273366000000 -535.39500785558698
1.19734243000000 1.72327780000000  96.05129828000000 -535.44062812719903
0.95334204000000 1.57112946000000 126.40148766000000 -535.45462195868492
1.02054139000000 1.52233825000000 114.08559120000000 -535.45258188246703
1.01389841000000 1.78965518000000  85.09118788000001 -535.46067029336996
1.39566928000000 1.78652004000000 100.55314405999999 -535.39773994716199
1.23496143000000 1.54418513000000 100.71220026000000 -535.42076513513405
1.04419766000000 1.69694704000000  93.86190123999999 -535.46490489689904
1.24713320000000 1.64488036000000  92.75889481000000 -535.42671859650602
1.22945769000000 1.60618505000000 101.96043702000000 -535.43128123850602
0.81986594000000 1.80278478000000 111.91384454000000 -535.43552358121701
0.92495854000000 1.68320261000000  65.16684443000000 -535.41892016070403
0.93307661000000 1.77153855000000 113.12179191000000 -535.46432503620304
0.96052609000000 1.81258159000000  72.53425602999999 -535.44620010046401
0.98557439000000 1.67015287000000 125.70680406000000 -535.45855017226302
1.08327736000000 1.89695225000000  97.77603639000000 -535.45023753620501
0.97871692000000 1.84290486000000 114.39438611999999 -535.45822677112096
1.12544877000000 1.82753628000000  98.26917199000000 -535.44960623641202
1.14748151000000 1.69824192000000  65.28824075000000 -535.41173858450395
0.91434777000000 1.57723896000000  95.05347530000000 -535.45825760609500
0.77534065000000 1.71199535000000  70.35294245999999 -535.38183251800899
1.00367941000000 1.63995078000000 116.46650615000000 -535.46557479673902
0.98013757000000 1.74549992000000  79.24313203000000 -535.45608491467306
1.13781655000000 1.82204812000000 107.25493794000000 -535.44605582367205
1.01960360000000 1.53907518000000  84.77713334000001 -535.43719885697499
0.89409203000000 1.72809412000000  94.01991968999999 -535.46405964962696
1.21776278000000 1.68243258000000  85.70381693000000 -535.42914379826505
0.93022659000000 1.60265526000000 123.90201089000000 -535.45858963662204
1.00375489000000 1.66793038000000  65.23109128000000 -535.42018603807605
1.23404957000000 1.66971227000000  84.96934483000000 -535.42434847839002
1.41977991000000 1.67015840000000 118.28790218000000 -535.39077790675606
0.79915684000000 1.72447450000000 102.57610345000001 -535.43312911447197
1.14979298000000 1.63673012000000 115.00021864999999 -535.44633127592283
0.96396346000000 1.78235415000000  89.47995926999999 -535.46580108292596
0.93274850000000 1.79190807000000  95.32895077000001 -535.46668295009204
0.97730783000000 1.98572440000000  89.58444090000000 -535.44953940959692
0.73062297000000 1.68965095000000  97.05175133000000 -535.37840582223896
1.09622617000000 1.67161247000000  68.85385931000000 -535.42289698141406
0.99450103000000 1.89374871000000  96.19896314000000 -535.45928285073296
1.19443721000000 1.76127599000000 107.93222335999999 -535.43931082564598
1.36590275000000 1.68642815000000  63.58400481000000 -535.37373608701296
1.06169368000000 1.52966182000000 113.13364464000000 -535.44975328119097
1.02884308000000 1.82221736000000  99.63289928000000 -535.46315922514202
1.19578899000000 1.68153495000000 108.21093779000000 -535.44122983006196
0.95501915000000 1.72259061000000  70.57155002000000 -535.43946150571117
1.27844880000000 1.70120896000000 135.98683292000001 -535.39857509080002
1.04836230000000 1.84057791000000  97.59854729000000 -535.45973534072095
0.96891078000000 1.80994539000000  94.36773884000000 -535.46649096520196
1.14184952000000 1.68518836000000  88.87784761000000 -535.44666395761396
1.27869078000000 1.46891889000000 102.78908333000000 -535.39254107883801
0.98262701000000 1.47756524000000  86.28147238000000 -535.42081691276996
1.28690700000000 1.85912549000000 102.06736653000000 -535.41482367750700
1.49164789000000 1.86071077000000 103.40661912000000 -535.37291172612197
1.14902386000000 1.58749219000000 103.34624282999999 -535.44528565173403
0.98440035000000 1.72040012000000  68.93763319000000 -535.43614128577497
0.96566596000000 1.41661072000000  94.03275087999999 -535.40459388373904
0.95220466000000 1.77876348000000  95.56424625000000 -535.46840312534891
1.11335351000000 1.67622802000000 113.47229716000000 -535.45425359605292
0.80778455000000 1.62978352000000 101.71408676000000 -535.43689099206495
1.40830703000000 1.73391682000000 105.55843985999999 -535.39721360502006
1.12376761000000 1.74738128000000 100.47810242000000 -535.45451707730092
0.97675960000000 1.77481323000000  83.06787627000000 -535.46072597914701
1.18294664000000 1.68045096000000  81.11644963000001 -535.43066045012097
1.10077293000000 1.74667313000000 102.15404195000001 -535.45829283408398
0.93210016000000 1.65533028000000  95.50959562000000 -535.46813474127998
0.89328390000000 1.63818691000000 119.15004544999999 -535.45981388002099
1.07685979000000 1.45548200000000 100.10406636000000 -535.42217895449596
1.01559335000000 1.75181774000000  94.26976962000001 -535.46730381613895
1.00442671000000 1.78885727000000  80.96649171000000 -535.45727909188599
1.08040481000000 1.56645734000000 101.25534473000000 -535.45317828352404
0.94331591000000 1.74282477000000  73.91911183000001 -535.44673537646804
0.99880366000000 1.74994094000000  82.77364967000000 -535.45992286650198
1.12465577000000 1.66641438000000  85.48176377999999 -535.44532753473004
1.06882203000000 1.87422898000000 103.06199832000000 -535.45357655742316
0.96306363000000 1.63522434000000 116.36872405000000 -535.46693289856717
0.95985852000000 1.66848967000000  68.88999560000001 -535.42988037486896
1.19900271000000 1.62939170000000 108.71419262000001 -535.43909045220596
0.97344639000000 1.86080277000000 109.64742493999999 -535.45961781690801
1.08156903000000 1.84391462000000 106.94811811000000 -535.45334627881516
0.91506764000000 1.56525999000000  77.16091082000000 -535.42702976518206
0.89851713000000 1.80515746000000  92.47239114000000 -535.46107992331599
1.22395162000000 1.69337075000000  85.65607639000000 -535.42836140820805
0.94748972000000 1.65229383000000  75.87297572000000 -535.44344632161301
0.99094119000000 1.83426412000000  69.23326295000000 -535.44053821949001
1.05578365000000 1.47685906000000 105.89981529000001 -535.43640514661297
0.90169332000000 1.64140391000000  65.53156715000000 -535.40929184710205
1.42138535000000 1.67236174000000 115.05970682000000 -535.39247187615194
0.95362000000000 1.79925711000000 101.48082021000000 -535.46763310946596
1.01306802000000 1.80429803000000  87.63664592000001 -535.46204724673896
0.77769820000000 1.56516962000000 104.88278406000001 -535.41314376914602
0.82089090000000 1.69854155000000  76.36159848000000 -535.42049773603901
1.00414235000000 1.66169326000000 143.42495352000000 -535.43364169254892
1.15392764000000 1.69033473000000 102.88277970000000 -535.45014791143103
1.17849812000000 1.71754434000000  98.44986717000000 -535.44497738258303
0.74107641000000 1.65509924000000  87.76418212000000 -535.38039240188596
1.38356186000000 1.72610810000000 109.77612943000000 -535.40127237423701
1.46006368000000 1.70224478000000 124.62325629999999 -535.37746032036796
0.79975899000000 1.69021714000000 105.64599988000001 -535.43408141009297
1.00850959000000 1.82274474000000 110.11996590000000 -535.46157044928805
0.71757648000000 1.67260110000000  76.62399793000000 -535.33858348305500
0.94566425000000 1.65551765000000 140.11816585000000 -535.44021068247503
1.08206470000000 1.85318995000000  99.79390081000000 -535.45429657458703
1.10142073000000 1.73009324000000 101.85872132999999 -535.45876237948698
0.97737667000000 1.95166281000000 120.65286216000000 -535.44090942847401
0.95403153000000 1.92949462000000  55.24656952000000 -535.41065948997004
1.18190166000000 1.64076197000000  95.39861664999999 -535.44119325021700
1.02938005000000 1.71788838000000  86.53822379000000 -535.46136723385598
1.14033294000000 1.66520446000000 101.89092581000000 -535.45222946048500
1.05236135000000 1.75814232000000  86.17100846000000 -535.45871649109995
0.96936874000000 1.62720211000000  68.96945642000000 -535.42342168983305
0.95628374000000 1.81592480000000 103.64836344000000 -535.46605675456101
0.93293781000000 1.62432382000000 142.18805067000000 -535.43682627110900
1.02088894000000 1.50572315000000 104.07324513000000 -535.44830085067497
0.77489912000000 1.70418800000000  70.94949305000000 -535.38226505345096
0.93449355000000 1.46380161000000  86.77882305000000 -535.41486255243399
1.01510808000000 1.60880598000000  72.26333984999999 -535.42772097256500
0.96107903000000 1.70061761000000 114.45650623000000 -535.46811427329499
0.77372017000000 1.70917524000000  93.73374317000000 -535.41469764511396
1.07665967000000 1.77185835000000 115.48429812000001 -535.45487726357499
1.10485749000000 1.68188016000000  61.12010708000000 -535.40464727218716
1.40533011000000 1.62996044000000 109.65727792000000 -535.39690521050898
1.06214575000000 1.77147436000000 102.93725190000001 -535.46256388499501
0.97122715000000 1.81088016000000 100.54276016999999 -535.46700368753898
0.98735615000000 1.50948718000000  99.00897094000000 -535.44867679494803
1.17248089000000 1.76736780000000 103.61478993000000 -535.44446835698295
0.92896562000000 1.57318896000000  70.24715230000000 -535.41167110090896
0.98812359000000 1.51240338000000 104.70748755000000 -535.45248537870998
1.00767092000000 1.86090834000000 119.78527544000001 -535.45054986281798
1.02052929000000 1.69790609000000 136.67272933999999 -535.44134736491503
0.89664889000000 1.66543639000000  95.64742402000000 -535.46467750366605
1.12693773000000 1.58998558000000  99.40819336000000 -535.44835672105899
0.96089384000000 1.70206730000000 105.59650635000000 -535.47169440313996
0.96439159000000 2.00112186000000 103.81295115000000 -535.44669374313196
0.84503874000000 2.00819259000000 105.54455722000000 -535.42617321776402
1.48811548000000 1.65600242000000  97.82867478999999 -535.38140316386898
1.05437433000000 1.68345283000000  97.92948642000000 -535.46517570177798
0.82280969000000 1.65619762000000  74.33948487000001 -535.41275221708895
1.15173867000000 1.69662375000000  95.80542968000000 -535.44932278910301
0.86647903000000 1.75196283000000 121.34589157000001 -535.44866746274499
0.67647433000000 1.72901471000000  89.67095834000000 -535.30170868316804
1.04948938000000 1.66039188000000  99.32839011000000 -535.46551894027300
0.99317752000000 1.75027150000000 102.35189200000001 -535.46993077771117
1.00119359000000 1.79931818000000  76.84216220000000 -535.45223574839292
1.19175136000000 1.81225504000000 100.67322145000000 -535.43831341642897
1.00298692000000 1.62902926000000  70.44903954000000 -535.42759887416196
1.37096420000000 1.63558685000000 101.60108722000000 -535.40424536757291
0.96765006000000 1.75907907000000  83.18545014000000 -535.46108200445201
1.20469328000000 1.65254848000000 101.77145580000000 -535.43941719167799
0.99616055000000 1.67493478000000 128.18932203000000 -535.45513722494093
1.08201793000000 1.69466226000000 115.43451277000000 -535.45774617420398
1.05278139000000 1.68511956000000 125.74300122000000 -535.45258595938401
0.92631226000000 1.82531662000000 115.68562980000000 -535.45740918212005
1.28968322000000 1.62338241000000 107.57399429000000 -535.42037800855098
0.74303788000000 1.72035121000000  79.56821889000000 -535.37406440411496
0.97979674000000 1.82674875000000  93.55479505000000 -535.46500734855204
1.45903045000000 1.69262610000000 115.03846865000000 -535.38513853598397
1.33294974000000 1.69185746000000 132.82749677999999 -535.39241606581697
0.86379107000000 1.72467885000000 110.87896809000000 -535.45730413343301
0.95998075000000 1.75107782000000  93.54594833000000 -535.46896795952716
1.13651214000000 1.79591964000000 109.83660251000001 -535.44714648162403
1.31045316000000 1.92681482000000 104.75632010000000 -535.40256815103692
1.11725315000000 1.88480472000000 103.73738208000000 -535.44511984750204
1.09133052000000 1.67695603000000  70.59681878000001 -535.42782528625798
0.96999938000000 1.61770377000000 110.50484839000001 -535.46883796409691
0.97314078000000 1.66339734000000 106.48890049000001 -535.47147526174695
0.99058081000000 1.47067464000000  91.80972079999999 -535.42717677170697
1.01485965000000 1.63150709000000  81.36078366000000 -535.44997371508805
0.79358623000000 1.88904087000000 100.43067575000001 -535.41729613458006
1.25019514000000 1.70225374000000 106.54728157000000 -535.43045088572092
1.00095782000000 1.61234273000000 124.66189469000000 -535.45798320025597
0.86314758000000 1.74952374000000 116.56741312000000 -535.45214847119496
0.88879255000000 1.63113975000000 119.95771959000000 -535.45825299918795
1.19891271000000 1.69712345000000 126.17720509000000 -535.42725827761797
0.89168118000000 1.71053358000000  91.96260334000000 -535.46256120786597
0.97609062000000 1.58885122000000  86.63189192000000 -535.45324566643706
1.14741503000000 1.62553838000000 114.59388925000000 -535.44652911044000
0.96992462000000 1.97087514000000 125.49070465000000 -535.43362685576801
1.26238661000000 1.70803190000000 113.72008903000000 -535.42487926045499
0.86992111000000 1.74984500000000 117.18788121999999 -535.45339230309696
0.98882038000000 1.70637129000000  74.76435515999999 -535.44701730234397
1.00025679000000 1.54451838000000 134.85033995000001 -535.44065031104697
0.99529615000000 1.88549712000000 121.94304794999999 -535.44645392890095
0.97101797000000 1.72364346000000  97.79028674000000 -535.47106126815800
1.07909723000000 1.90894639000000 103.65650205999999 -535.44851557430002
1.00403125000000 1.56651777000000 116.96487190000001 -535.45995393433202
0.98848447000000 1.72370167000000 108.08409952000000 -535.46999619623796
1.02907604000000 1.71508542000000 104.24649823999999 -535.46834920652100
1.14933644000000 1.69255583000000 132.26391409999999 -535.42925706645701
1.45078284000000 1.63160213000000  95.79509242000000 -535.38613938233300
0.78045051000000 1.92967857000000 104.42294047999999 -535.40320863387603
0.95198128000000 1.78594896000000 109.34719026000000 -535.46626578060898
0.88434172000000 1.67399781000000  97.05993121000000 -535.46342078271516
0.92086934000000 1.80132438000000 120.14948398000000 -535.45521580125205
0.96084665000000 1.64727343000000 104.75343795000001 -535.47125424744195
1.13151873000000 1.68572759000000 124.57694380000000 -535.44191518998196
0.87127523000000 1.83790434000000 110.06466500000001 -535.45112598758897
1.08818948000000 1.66514557000000  85.40870767000000 -535.45087053564316
0.98754520000000 1.84822514000000  92.10035139000000 -535.46279563731798
1.10956616000000 1.55015395000000 101.44633742000001 -535.44588071984299
0.68509041000000 1.61953944000000  92.76641198000000 -535.31419624232296
1.11901154000000 1.54023627000000 104.36039973000000 -535.44332923251898
0.98200380000000 1.53388755000000 134.84359096000000 -535.44017985041501
0.85430119000000 1.80917607000000 113.93215521000000 -535.44673335125003
1.14379258000000 1.55767067000000  96.80340409999999 -535.43880422111397
0.78438550000000 1.70355859000000 125.67252497000000 -535.41140264017292
1.10368456000000 1.72467745000000  94.32207671000000 -535.45707607651002
1.26452488000000 1.70590914000000  87.64418067000000 -535.42216548530200
0.89547327000000 1.63877789000000 116.96663584000000 -535.46173542448003
1.01399488000000 1.77988908000000  77.91799695000000 -535.45312295469398
0.96513671000000 1.43368246000000 113.69065463000000 -535.42735737647297
0.98805854000000 1.54827099000000 112.62929486000000 -535.46007385502196
0.83677067000000 1.70403749000000  75.99339003000000 -535.42687935571405
0.95012498000000 1.90705700000000  94.71472181999999 -535.45814988984000
0.95195352000000 1.69098379000000 108.42905343000000 -535.47103503999097
1.00358453000000 1.95557797000000  92.80836248000000 -535.45234583843103
0.96293917000000 1.89666971000000  92.85441390000000 -535.45916376281502
1.15615289000000 1.73420624000000 110.81081111000000 -535.44673247649098
1.06672161000000 1.67078983000000  88.75145087999999 -535.45762259391597
0.98932039000000 1.92326387000000  84.38579910999999 -535.45316829321098
1.19192370000000 1.69731564000000  88.24460191999999 -535.43716325296316
1.05692302000000 1.69790408000000 100.09382263000001 -535.46546273761305
0.90492438000000 1.61669900000000 104.82630181000000 -535.46593507279397
1.35679518000000 1.71176894000000 121.30420936000000 -535.39982438174695
1.34352344000000 1.62260290000000 107.19249454000000 -535.40929134213604
1.07110142000000 1.63695590000000 118.43718120000000 -535.45698438569605
1.09037971000000 1.84466475000000 100.41610011000000 -535.45375176006098
1.40645664000000 1.79963558000000 106.10842459000000 -535.39384009583796
1.00270328000000 1.67536309000000 105.17065852000000 -535.47061145406803
0.84719853000000 1.60711337000000  88.66641162000001 -535.44157547979398
0.96925853000000 1.81604126000000 100.51513369000000 -535.46662728101796
1.09138392000000 1.68740519000000  59.37529604000000 -535.40168049761803
1.08880466000000 1.72010258000000  92.93271761000000 -535.45875329724697
0.99874898000000 1.56198973000000 100.59386780000000 -535.46082563142102
1.06514443000000 1.59320239000000 101.39628737000000 -535.45906631194805
1.11498040000000 1.70755446000000  59.38088520000000 -535.40258287798804
1.14435065000000 1.70018989000000  79.18991635000000 -535.43634082612891
1.09725080000000 1.78206979000000 105.85658382000000 -535.45627611531199
1.12669948000000 1.68253807000000 116.58268992000001 -535.44995802797291
0.85369340000000 1.69281720000000 103.20674434999999 -535.45717170017292
0.79025756000000 1.64678439000000 100.36872655000001 -535.42752521363400
1.09018555000000 1.81349089000000 103.49513896000001 -535.45576488487404
0.82683537000000 2.00736085000000  98.71897468000000 -535.42121227638404
0.85678106000000 1.76331866000000  96.37061941000000 -535.45517718056101
1.16580691000000 1.56974835000000 109.56321341000000 -535.43993507471100
0.97945654000000 1.87164602000000 127.95659292000001 -535.44151759171405
0.91996157000000 1.62946908000000  74.96076321000000 -535.43589790721205
1.14554771000000 1.71055205000000 105.26061030000000 -535.45129459911595
1.13402707000000 1.75174372000000  99.15658071999999 -535.45250498707401
0.93787172000000 1.89713862000000 127.56592198000000 -535.43846114036000
0.93193823000000 1.58989430000000 134.33011091000000 -535.44637908213497
0.84012321000000 1.69493831000000  70.79866413000001 -535.41596260966605
1.46218761000000 1.73965755000000 106.66705650000000 -535.38625034895597
0.96775296000000 1.87283496000000  73.08168677000000 -535.44579401329804
1.19998437000000 1.78683856000000 103.86080615000000 -535.43790424007602
1.27731881000000 1.81255139000000 103.28267682000001 -535.42036634536396
0.91799108000000 1.46724676000000  91.26485466000000 -535.42311961210396
0.91101461000000 1.90402172000000  94.31013260000000 -535.45527998577404
1.21527469000000 1.67178989000000  68.39506152000000 -535.40432159255693
0.84896832000000 1.63986810000000  85.09082952999999 -535.44121051075194
0.95017931000000 1.53879238000000 113.48188860000000 -535.45871749999606
0.97294415000000 1.71569905000000  77.51474555999999 -535.45256645378799
0.98672344000000 1.79293558000000  81.82593248000001 -535.45885041781901
1.05950204000000 1.62794190000000 121.23229519000000 -535.45599245598703
0.87576480000000 1.62585487000000 111.70022849000000 -535.46027383533203
0.86643287000000 1.78237058000000  93.34949494999999 -535.45595351334316
0.90919675000000 1.74281503000000 101.27032226999999 -535.46761072687900
0.98369313000000 1.55340573000000 115.00940344999999 -535.46022550711700
0.95180224000000 1.64853650000000 138.89841566999999 -535.44222485931095
0.89672567000000 1.83498700000000 107.19047698000000 -535.45801756717401
0.98083238000000 1.93739409000000  84.66755784999999 -535.45231579461802
1.20639749000000 1.52523329000000 100.70303490000001 -535.42237352666098
1.12431230000000 1.88391117000000 101.47522845000000 -535.44460235532097
1.01873845000000 1.95155775000000 108.26068551000000 -535.44848217591516
1.04774694000000 1.63223604000000  98.61468268000000 -535.46395621693500
0.95831321000000 1.80272992000000  90.76918397000000 -535.46549158381504
0.98951387000000 1.64823057000000 102.17952739000000 -535.47057820281293
0.95306469000000 1.79529921000000  86.34278107000000 -535.46292494479917
1.12450646000000 1.70263636000000 100.58450371000001 -535.45533660615797
0.97135025000000 1.57508404000000  91.17372644000000 -535.45666526735204
1.34628252000000 1.74381461000000  96.15311825000001 -535.40930765210896
0.91715728000000 1.70105476000000 101.30268768000001 -535.46958857705397
0.86290229000000 1.74383293000000 110.93011570000000 -535.45605075513595
0.84909840000000 1.72752176000000  69.44410714999999 -535.41884480104898
0.96415448000000 1.78971079000000  64.98235355000000 -535.43105434011693
0.99359349000000 1.85215569000000  99.95319666000000 -535.46307426816702
0.97108585000000 2.10150330000000  97.01456021000000 -535.43683187304202
1.00700169000000 1.76763923000000  90.61341241000000 -535.46569853672997
0.91611172000000 1.75929767000000 115.52116472000000 -535.46205376534397
1.05264730000000 1.81744839000000  98.69007563000000 -535.46103744165396
0.82295849000000 1.66531332000000  74.41999677000000 -535.41415847274402
0.95842506000000 1.90798163000000 103.10704186000000 -535.45741795559104
1.44826935000000 1.68597677000000 119.47181012000000 -535.38439721207396
1.11991535000000 1.63301569000000  95.20788473000000 -535.45187618942316
0.81910943000000 1.62533186000000 117.33817041000000 -535.43872094099197
1.16007634000000 1.70300443000000 126.80012540000000 -535.43380046966502
0.75506333000000 1.71526661000000  86.16880887000001 -535.39370278705803
0.99214402000000 1.64995457000000 143.39594500999999 -535.43466416164995
1.13352233000000 1.89413355000000 102.92592599000000 -535.44166817817802
0.95596486000000 1.54089951000000  71.13909090999999 -535.40640334492798
0.91819825000000 1.51818924000000  88.00846498000000 -535.43632371815102
0.79534376000000 1.70148348000000 112.99278357000000 -535.42877588516501
0.98241393000000 1.80377314000000  74.81220682999999 -535.44990685618097
1.27090985000000 1.66110103000000 116.47177487000000 -535.42186148149597
0.94169217000000 1.59213473000000 133.38519198000000 -535.44814760179690
0.90073321000000 1.93728357000000 102.43606668000000 -535.44957573023896
1.05986951000000 1.83381499000000  97.71984274000000 -535.45891583094397
1.36625325000000 1.56161123000000  99.08134861000001 -535.39639821652599
0.83676364000000 1.79136488000000  97.91728508999999 -535.44710120103196
0.96032517000000 1.70460245000000  59.49543426000000 -535.40713767815498
1.19394921000000 1.74901752000000 111.21839742000000 -535.43857305077904
1.32538841000000 1.59659062000000 103.96022280000000 -535.41088430646198
1.02543039000000 1.63974540000000 127.25566865000000 -535.45411609278403
0.91441287000000 2.01124804000000 107.24810585000000 -535.44086075649295
1.04265142000000 1.68468263000000 113.09165651000001 -535.46443697616701
0.97700095000000 1.71210167000000  72.01472201000000 -535.44218488478703
1.28532593000000 1.69821609000000 126.85272460000000 -535.40908873896501
1.21478674000000 1.83481542000000 102.32030820000000 -535.43176284732283
0.90666212000000 1.68964074000000 118.62226855999999 -535.46196151388892
0.93983532000000 1.68537927000000 143.89140194999999 -535.43332560780698
1.30063979000000 1.73926870000000  96.68982507000000 -535.41913514020303
1.29474455000000 1.68906543000000  87.68594537000000 -535.41536900825497
1.42738377000000 1.69678460000000 116.09229184000000 -535.39038091935004
1.03103162000000 1.66668264000000  89.53679357000000 -535.46212499013404
0.97462432000000 1.78046716000000  68.30328919000000 -535.43817818817695
1.14030710000000 1.63157251000000  99.17026663000000 -535.45001011226805
1.15878067000000 1.95175676000000 103.38717139000001 -535.43094757161998
0.99404410000000 1.66106222000000  64.32989696000000 -535.41650471851301
1.01350961000000 1.78461679000000 109.05513479000000 -535.46481969417198
0.90961170000000 1.73093073000000  82.98943894000000 -535.45709099713702
1.19183063000000 1.74331664000000 106.84732962000000 -535.44106996769699
0.86303660000000 1.81070473000000  94.73736298999999 -535.45379592729705
1.23376848000000 1.57581552000000 108.44174486000000 -535.42742331955299
1.02329777000000 1.80484351000000  88.31096574000000 -535.46166383470495
0.95226615000000 1.56359687000000 117.98897078000000 -535.46048375080204
0.88633591000000 1.68611939000000  72.15954600000001 -535.43163556097102
0.98762586000000 1.62726316000000 120.98313532000000 -535.46268263045204
0.95775728000000 1.84146063000000 102.82770558999999 -535.46408507361605
0.94408794000000 1.87973969000000 116.12160149000000 -535.45263615909198
0.92474176000000 1.60923923000000 118.86375629000000 -535.46271028130002
1.12380276000000 1.61928432000000 105.56774804000000 -535.45300996721005
0.96251256000000 1.52543411000000  98.34835566000000 -535.45291082637596
1.06557890000000 1.96119109000000 101.36895183999999 -535.44531796320700
1.09178301000000 1.85931616000000 104.22199086000001 -535.45143153108802
1.14108870000000 1.61777182000000 100.10761302000000 -535.44907631260196
0.89865684000000 1.68906537000000  69.26855045000001 -535.42725264766091
0.84312214000000 1.62837974000000  98.61945466000000 -535.45082525961698
0.93886778000000 1.72457423000000  89.47286615000000 -535.46618978772096
0.81214457000000 1.56257177000000 103.95064216000000 -535.43261969608295
0.91190468000000 1.78792377000000 108.01537259000000 -535.46384992284493
1.04539243000000 1.59873201000000 109.50879861000000 -535.46242126498998
1.37067588000000 1.70753275000000  94.26923325999999 -535.40403406322400
0.92537237000000 1.72808125000000  98.36802199000000 -535.46949259142195
1.20264728000000 1.62789452000000 105.89139136999999 -535.43869533287204
1.05117906000000 1.63344445000000 124.24202181000000 -535.45439306361504
0.91402242000000 1.67850760000000 118.91332403000000 -535.46284749829897
0.91048777000000 1.53744148000000  86.69942275000000 -535.43879399065690
1.13232874000000 1.75549313000000  96.47373082000000 -535.45226649015206
0.98434977000000 1.79568914000000 112.66291635000000 -535.46353315612203
0.95111652000000 1.71685547000000  92.95074691000001 -535.46903048568095
1.04471725000000 1.79813098000000 107.35917145000001 -535.46166668000797
1.22477651000000 1.71016980000000 118.51347516000000 -535.42915815317599
1.08162213000000 1.76027700000000 114.55265113000000 -535.45560734597098
1.08283661000000 1.86155548000000  98.29390375000000 -535.45355228525796
0.90281423000000 1.70895065000000  59.08334929000000 -535.39955320883405
1.04175802000000 1.66228651000000  67.43221386000000 -535.42350670356495
0.96864354000000 1.71446126000000 130.24411017000000 -535.45206027645997
0.93785896000000 2.02366564000000 102.89164506000000 -535.44340363663116
1.13427741000000 1.77088637000000  98.92844655000000 -535.45162474422796
1.11197309000000 1.69451855000000  70.54091098000001 -535.42684824020205
0.98327293000000 1.64927645000000  93.87050705999999 -535.46756296554497
1.10588396000000 1.66012286000000 102.75534720000000 -535.45806591291102
0.93211956000000 1.84589655000000  85.11135941000001 -535.45833190936798
0.94041230000000 1.68982108000000 131.10242088000001 -535.45158342110597
1.47684542000000 1.70078787000000 116.98121451999999 -535.38053056630304
0.92591654000000 1.57057244000000 118.79098740000001 -535.45963875004600
0.86872037000000 1.50070579000000 105.20046684000000 -535.43995914455695
1.06171537000000 1.65116725000000 137.26629573000000 -535.43704286378897
0.92257576000000 1.85591869000000  82.72032449000000 -535.45498891646298
1.00083759000000 1.78747398000000  82.68736070999999 -535.45930720263300
1.00177332000000 1.61483162000000 123.32517874000000 -535.45932913894899
0.98625758000000 1.75296124000000 114.04637101000000 -535.46560299335204
0.94354507000000 1.89358259000000 112.89006702000000 -535.45357754451300
0.97200685000000 1.85559290000000  92.36863354000000 -535.46262014828596
1.02052323000000 1.60476730000000  72.83409541000000 -535.42798408841804
0.87468056000000 2.06308866000000 105.35126217000000 -535.42842331978795
0.96328436000000 1.58566365000000 134.77097685999999 -535.44627575701895
0.87649527000000 1.76959810000000 104.70338844000000 -535.46012371133691
1.08086211000000 1.74631306000000  98.67562973000000 -535.46122278663199
1.13779164000000 1.71157978000000 142.18809282999999 -535.41579268789599
1.14690759000000 1.67297593000000  95.73112395000000 -535.44964391154099
0.85264197000000 1.77711355000000 113.76817602000000 -535.44908657752001
0.83461964000000 1.53248026000000  94.71550348000000 -535.43024325306999
0.89364505000000 1.79500768000000  90.96776570000000 -535.46014696648297
1.06943874000000 1.42326207000000 101.67949568000000 -535.40952607353802
1.01407004000000 1.49610538000000  91.76459362000000 -535.43530503970703
0.87512818000000 1.72563298000000 123.08250515000000 -535.45074666483299
1.05749363000000 1.61609744000000 118.92051925000000 -535.45759472580096
1.06456286000000 1.69189689000000 135.78012745999999 -535.43797078844602
0.87910898000000 1.68613527000000 118.39153601000000 -535.45757299864101
1.15372936000000 1.57802003000000  98.10337263000000 -535.44124147113405
0.91549377000000 1.65800809000000 136.88196209000000 -535.44290630610601
1.21900819000000 1.67151060000000  86.92241624000000 -535.42946050578598
0.80498966000000 1.69860042000000  75.22484872000000 -535.41028907602094
1.18656920000000 1.76335386000000  96.23507351000001 -535.44179461734802
0.95639631000000 1.68987233000000  95.93719148000000 -535.47047133587796
0.83683463000000 1.76031689000000 114.55877853000000 -535.44436445400800
0.97778958000000 1.94210871000000  57.08657007000000 -535.41589229320698
0.97611193000000 1.82369116000000  76.95897839000000 -535.45257770685896
1.05608983000000 1.85691250000000  94.20007652000000 -535.45716473076300
0.71533949000000 1.68631332000000  78.20150047000000 -535.34020988373595
1.11756131000000 1.74048992000000 102.34115315000000 -535.45577027233799
0.98665265000000 1.67782478000000 117.79669767000000 -535.46578388884200
0.89055185000000 1.94627431000000 105.08266352000000 -535.44588029479803
1.14760776000000 1.76249330000000 111.34940228000001 -535.44659017530898
0.90432207000000 1.51933231000000 116.37920160000000 -535.45062114919403
1.26392357000000 1.86272336000000 100.30754994000000 -535.41959951984700
0.91467546000000 1.70324627000000 119.34636668000000 -535.46187078168202
0.85502682000000 1.71675022000000  74.04086761000001 -535.43022889240603
0.94794212000000 1.74084787000000 127.22533602999999 -535.45402715795103
1.06300211000000 1.74720605000000 115.60002255000001 -535.45817455663200
0.94639107000000 1.86659692000000 118.56108030000000 -535.45201053505195
0.92883770000000 1.89405937000000  97.16415144000000 -535.45830711607005
0.77970497000000 1.61478844000000 103.73208484000000 -535.41965426853517
0.99896217000000 1.59578419000000 124.87386825999999 -535.45695098763201
0.85576882000000 1.49814751000000 112.16624032000000 -535.43675017030716
1.30393001000000 1.68484463000000 129.02796832000001 -535.40313962875803
0.90932852000000 1.72963148000000  73.72252637000000 -535.44240752533801
0.98321250000000 1.91752299000000 116.64006211000000 -535.44837978416194
0.95219717000000 1.75061435000000  99.83669123000000 -535.47041208316000
1.18026992000000 1.72588178000000  91.86271945999999 -535.44222748028994
0.96527864000000 1.58896469000000 139.71930904000001 -535.43982483406603
0.96316227000000 1.91528675000000 108.76085246000000 -535.45430626797292
1.21956179000000 1.66143310000000 111.57814030000000 -535.43507656686097
1.08040611000000 1.72925138000000  89.31155013999999 -535.45775725813598
1.10114160000000 1.66777644000000  88.58016661000001 -535.45236265739800
0.78055639000000 1.74583998000000 111.09944965000000 -535.41823585416603
0.87347024000000 1.99136611000000 101.47486691000000 -535.43811785756600
1.03774359000000 1.70208103000000 111.15091682000001 -535.46567698631497
1.03597351000000 1.70471853000000  93.84705280000000 -535.46585529121296
1.15767149000000 1.50501712000000  99.64709870999999 -535.42581762201996
0.98428212000000 1.55306814000000  72.10199050000000 -535.41391710400603
0.93030134000000 1.62369747000000  73.41385077000000 -535.43226723934595
0.93121136000000 1.71445071000000 113.11963933000000 -535.46739616153400
1.37496155000000 1.68411448000000 110.71991303999999 -535.40356861085297
0.92282713000000 1.64051872000000 138.08324897000000 -535.44207925887292
1.14386315000000 1.65187582000000  93.57232721000000 -535.44802929817797
1.10163119000000 1.80553301000000 110.35354336000000 -535.45197850038505
0.95774332000000 1.73792412000000 100.76897627000000 -535.47105963990396
1.24943240000000 1.83697504000000 104.10672862000000 -535.42407335483495
1.14313481000000 1.70603484000000  72.11950003000000 -535.42606453221697
1.25411086000000 1.64715471000000 111.38247699999999 -535.42776891356198
1.01824842000000 1.75973830000000  99.19292265999999 -535.46791022085904
1.03562659000000 1.60182289000000  93.90251100000000 -535.45951623728092
1.36767871000000 1.56312963000000 104.09011416000000 -535.39822113462196
1.18977631000000 1.84289182000000 107.36877954000001 -535.43449671231394
1.00464491000000 1.49400314000000 115.30574566000000 -535.44668631336401
1.35012159000000 1.67910929000000 122.47753702000000 -535.40091524854301
0.94285033000000 1.65849844000000 133.21189498999999 -535.44974536799498
1.05232276000000 1.41075630000000 111.04758158000000 -535.40994056975501
0.95301278000000 1.77915316000000 116.36419402999999 -535.46232040560301
0.97150783000000 1.55249134000000 100.90096538000000 -535.46029011552696
0.95955816000000 2.07221474000000 105.28346741000000 -535.43764970686595
0.91033771000000 1.72080154000000 104.52105342000000 -535.46833088789117
1.17563996000000 1.69729926000000 136.41919741999999 -535.41835101352797
0.79052813000000 1.94146937000000  99.70145863000000 -535.40968193428898
1.33091416000000 1.70021853000000  71.76488801000001 -535.39070502689697
0.99653796000000 1.79492483000000 115.77858141999999 -535.46087655926601
0.78996241000000 1.77474107000000 105.26426992000000 -535.42459060302201
1.21527498000000 1.81652150000000 107.07933590000000 -535.43175076087903
1.03268964000000 1.69361612000000  83.32078321000000 -535.45678607562900
1.16356056000000 1.69149322000000 113.18464742000000 -535.44531062491296
1.02299114000000 1.73076510000000  73.93318300000000 -535.44534185646603
1.12991729000000 1.57942938000000 102.08414506000000 -535.44739205206201
1.04762733000000 1.72503358000000 126.99752300000000 -535.45021561727503
0.96492083000000 1.73376559000000  91.53284771000000 -535.46831182562801
0.75038368000000 1.67262655000000 115.29366263999999 -535.39547357490801
0.95967195000000 1.81615295000000 121.21537313000000 -535.45486118882002
0.99070687000000 1.81459173000000  76.40623653999999 -535.45180021383601
0.96483168000000 1.68860969000000 107.20725858000000 -535.47153275064204
1.01971691000000 1.82033620000000  92.18269275999999 -535.46293739103396
0.98716689000000 1.53480703000000  74.47548060000000 -535.41462904217201
1.06910143000000 1.69304258000000 102.94160171000000 -535.46405339276998
0.86089739000000 1.69539218000000  69.56619811000000 -535.41989477990091
0.91826030000000 1.67280547000000 114.24544666000000 -535.46660523602804
0.97098424000000 1.89475922000000 115.07613945999999 -535.45238386425103
0.91629203000000 2.01116891000000  92.59385652000000 -535.44433773047297
0.87846358000000 1.73078748000000 105.53624253000000 -535.46243190958091
1.00090993000000 1.63071103000000 100.85990891000000 -535.46876527818404
1.02410682000000 1.71772366000000  93.25129842000000 -535.46670850474095
0.94641058000000 1.81675713000000  63.11464969000000 -535.42683632423598
1.03442097000000 1.64844175000000 112.65547237000000 -535.46531594015516
1.07536080000000 1.73030936000000 103.48471172000001 -535.46253827593796
0.97660438000000 1.56966830000000  78.55692560000000 -535.43474711180704
0.96281612000000 1.73415758000000 104.61468710000000 -535.47098434102202
0.99339396000000 1.70367565000000 124.56654274000000 -535.45853267863595
0.99432438000000 1.70621792000000 108.25211097000000 -535.47018766994995
1.06606886000000 1.78447573000000 102.69305568999999 -535.46132204752098
0.95608335000000 1.44043775000000  82.83922256000000 -535.39526022096402
0.98381818000000 1.78306458000000 108.03837294000000 -535.46696090118905
0.89651812000000 1.69353257000000  77.38401634000000 -535.44503446834699
1.20421541000000 1.66538317000000  91.22969662000000 -535.43568037044599
1.13012924000000 1.71538538000000  86.15367829000000 -535.44724962412704
1.03497341000000 1.64220561000000 105.54880210000000 -535.46700410810797
0.93881673000000 1.56666818000000 112.33042964000001 -535.46297786730395
0.71527766000000 1.69669415000000  98.05593901000000 -535.36150132062505
1.07854593000000 1.70224887000000 119.36727279000000 -535.45502185432099
0.97820971000000 1.65216536000000 107.98330228000000 -535.47083572670999
0.94912589000000 1.56918108000000 109.74610520000000 -535.46423917627692
1.43883438000000 1.66935299000000 111.37044605000000 -535.39083772144500
0.98858299000000 1.73572036000000 101.59840756000000 -535.47073205436197
1.05266434000000 1.61422242000000 108.06087173000000 -535.46309134594298
1.08115550000000 1.82256000000000 102.84119637000001 -535.45651818030206
0.68644959000000 1.70734472000000  79.69946105000000 -535.30504028884297
1.18914644000000 1.75808944000000  95.66746596000000 -535.44134818838097
0.97521815000000 1.44396535000000  98.26427579000000 -535.42424779890405
0.80694414000000 1.70732655000000 111.50524605000000 -535.43573570986405
0.99255251000000 1.44363443000000  88.95064302999999 -535.40993365134500
0.99152322000000 1.73192022000000  83.58609328000000 -535.46100238004203
0.98094529000000 1.60659845000000 119.55544387000000 -535.46310671977301
1.14696415000000 1.52767965000000  97.27391720999999 -535.43208107146700
0.87459062000000 1.64001929000000 126.73021036999999 -535.44921474924502
0.97090900000000 1.56908280000000  75.70909093000000 -535.42798845279594
1.21404792000000 1.65870999000000  89.40555582000000 -535.43188048956995
1.06157966000000 1.58653248000000  90.27188219000000 -535.45090480985402
0.95804699000000 1.43430685000000  74.72515253000000 -535.36810287288495
1.34750013000000 1.63755573000000 108.87173769000000 -535.40895394450297
0.95515685000000 1.86118987000000  91.86372376000000 -535.46187355292204
0.80253363000000 1.73904090000000 113.15836643999999 -535.43093790802197
1.00254234000000 1.64408587000000 107.02606256999999 -535.46965088351601
0.88142927000000 1.98495039000000 107.28929246000000 -535.43845254178700
0.98464747000000 1.89477397000000 117.38488509000000 -535.45022455035098
1.21668275000000 1.65372632000000  88.24989474000000 -535.42997308184704
0.86310978000000 1.83872052000000 101.59510212000001 -535.45192227161397
0.94214417000000 1.73778784000000  97.83217153000000 -535.47022429182198
1.14619977000000 1.66054678000000  80.47790719000000 -535.43485377457398
0.98600623000000 1.73256490000000  70.76947939000000 -535.44096850804999
0.97033735000000 1.68397336000000 119.64602671999999 -535.46461852163497
0.85831121000000 1.89494752000000 104.20698616999999 -535.44425440971395
1.47692154000000 1.53720344000000 100.19057012000000 -535.37187342221205
0.73070654000000 1.73212020000000  85.56365884000000 -535.36991133365291
1.00296952000000 1.70809469000000  80.81594468999999 -535.45634685966400
0.93020458000000 1.71759471000000 113.13031724000000 -535.46719690680698
1.44160826000000 1.92508403000000 102.55994809000001 -535.37650257050598
0.96478624000000 1.93886357000000  93.00533362000000 -535.45506505173103
0.84743824000000 1.57268646000000 106.20928462000001 -535.44873054153800
1.20045485000000 1.68337291000000 141.98304075999999 -535.40543347786297
0.87830273000000 1.80107747000000 114.46995367000000 -535.45340200113401
0.74266235000000 1.73034435000000 111.08218974000000 -535.38851097520296
0.71850033000000 1.71317710000000  97.38546085999999 -535.36487085326098
1.32748781000000 1.74200503000000  97.88032280000000 -535.41365487064900
1.02799607000000 1.70813411000000 145.81736759000000 -535.42591633981397
0.79440832000000 1.81321234000000 105.76492412000000 -535.42405306076500
1.02909553000000 1.79922858000000  93.04906530000000 -535.46369461452605
0.89473482000000 1.84569350000000 100.41136530000000 -535.45847187445202
1.01370048000000 1.76277437000000 112.07659341000000 -535.46468810370197
0.95628190000000 1.70455338000000  85.39185845000000 -535.46272048548701
0.97896014000000 1.54127146000000 120.87589430000000 -535.45520597846200
0.87549386000000 1.82109284000000 109.87611022999999 -535.45384330418096
0.94367471000000 1.68276737000000 148.17363817000000 -535.42690450011298
1.09464366000000 1.71654922000000  96.53603776999999 -535.45934499470604
0.90405928000000 1.51982564000000 104.82340985000000 -535.45135031495897
0.67862685000000 1.57393936000000  96.67448047000001 -535.30196815870704
1.05889124000000 1.77597916000000  93.30870754999999 -535.46170666643900
0.93994990000000 1.76751394000000 115.42814738000000 -535.46341929404002
0.98803951000000 1.51213934000000 145.11400351000000 -535.42289413606898
0.96351617000000 1.49009461000000  86.69012879000000 -535.42675989304303
1.08062804000000 1.69894510000000 146.25674434999999 -535.41910252316893
0.69156221000000 1.47498474000000 102.98835072000000 -535.30241267155895
1.16768957000000 1.63135053000000  98.71253331000000 -535.44474755710996
1.01784447000000 1.88346318000000 100.45602409000000 -535.45861192886002
1.12310459000000 1.91016068000000 104.25744318000000 -535.44139978866997
1.06767501000000 1.66225028000000  94.17837917000000 -535.46112606731401
1.06808742000000 1.64611720000000 129.25726275000000 -535.44686407959603
0.98710567000000 1.53835967000000 119.35584444000000 -535.45541917315404
0.93656839000000 1.91411666000000  87.06064730000000 -535.45462582715095
1.06642397000000 1.53943137000000 105.74761789999999 -535.45152052190497
0.78226842000000 1.69791596000000 110.89129180000000 -535.42175167680091
0.98365771000000 1.71148791000000  81.83315048999999 -535.45859702570897
0.90647210000000 1.67214963000000  94.02474986999999 -535.46542759604995
1.15900064000000 1.44480342000000 104.09864460999999 -535.40697183692600
1.03935190000000 1.62677337000000  93.14624139999999 -535.46129396685296
1.02401835000000 1.58101670000000 122.79417581000000 -535.45570408675098
1.08201512000000 1.60259385000000 109.45750537000001 -535.45792956139996
0.95880074000000 1.51267584000000 108.90390257000000 -535.45392428904995
0.82007206000000 1.91878202000000  99.23324547000000 -535.42833982272396
0.96190142000000 1.84247461000000  75.79048318000000 -535.45041961607706
1.06271761000000 1.95087894000000  98.66826687000000 -535.44734195045896
0.93915345000000 1.77176846000000  74.01582639999999 -535.44746539280595
1.04067540000000 1.81302321000000 101.27833532000000 -535.46255617629799
0.96204569000000 1.61683122000000 126.96685948000000 -535.45714300569500
1.28443291000000 1.77384739000000 104.26393964000000 -535.42119409510701
0.97218387000000 1.59016437000000  81.51462659000001 -535.44518160829102
1.02233682000000 1.75266599000000  93.73291654000001 -535.46652807638100
0.91210121000000 1.66325285000000 117.58188670000000 -535.46380894786898
1.11329380000000 1.70233816000000  91.99655364000000 -535.45427431413896
0.95630030000000 1.63046764000000  91.56507130999999 -535.46447220433299
1.01505788000000 1.95952542000000  93.50227457000000 -535.45127984262194
0.96702476000000 1.72059684000000 133.82013642999999 -535.44694239926605
1.03166076000000 1.63428023000000 106.21524798999999 -535.46691069478493
0.88260714000000 1.66025080000000  74.95458334000000 -535.43420711134695
1.03838091000000 1.98733881000000  96.41472996000000 -535.44629843937116
0.97205082000000 1.71040123000000  71.99195306999999 -535.44198544284097
1.11992688000000 1.44178696000000  98.96239128000001 -535.40852085518895
0.79488465000000 1.69291977000000  90.66760781000001 -535.42626760032203
0.98698173000000 1.74349356000000  89.64612839000000 -535.46662393103202
0.99064534000000 1.89959640000000  91.54271783000000 -535.45820754595502
1.16746744000000 1.60637441000000 107.40561384999999 -535.44389059218395
0.98439640000000 1.62989820000000  90.80745330000001 -535.46349143966893
0.97619240000000 1.76772715000000 109.81068395000000 -535.46739692663800
1.20119890000000 1.92260320000000 101.25921518000000 -535.42650512319995
0.95552891000000 1.63552324000000  95.05513293999999 -535.46758944186797
1.07772918000000 1.70525315000000  67.60114746000001 -535.42600466876002
1.20252222000000 1.78292282000000 103.18750032000000 -535.43776690030302
0.90884263000000 1.65508531000000 121.52268285000000 -535.46023489142499
0.98938830000000 1.61108922000000  93.53439604000000 -535.46372293396405
1.04230264000000 1.78462120000000  91.16787594000000 -535.46233319992996
0.68345377000000 1.88827205000000 103.01730935000000 -535.30402467622105
0.97719294000000 1.66138776000000 106.75383811000000 -535.47131234400092
1.20776286000000 1.69714956000000 119.51213693000000 -535.43211155368795
1.34310772000000 1.67370902000000  89.12326919000000 -535.40576087905004
0.94654078000000 1.52684659000000 119.51771846000000 -535.45371459867295
1.28117152000000 1.63835837000000 111.84282600000000 -535.42170306537798
1.27200693000000 1.65898983000000 101.80613122000000 -535.42581081149399
0.83350734000000 1.64235792000000 109.68919637000000 -535.44882798602896
1.26103022000000 1.72563761000000 104.13857502000000 -535.42815646824602
0.93174938000000 1.51535150000000  92.52719521000000 -535.44325980502902
0.91437741000000 1.71726786000000  58.26398799000000 -535.39988831318396
0.78986658000000 1.72507142000000 108.96512487000000 -535.42635115080304
0.97639674000000 2.05842020000000 111.86493650000000 -535.43573957911406
0.84584608000000 1.74668239000000  91.38708846000000 -535.45008885483401
1.08543088000000 1.64541187000000 130.16677693000000 -535.44325762004200
1.01815887000000 1.55919847000000 120.67761392000000 -535.45552051174695
0.94482568000000 1.64119986000000  96.90542492000000 -535.46874517985600
0.89558005000000 1.58925578000000  86.75442993000000 -535.44808047040317
0.91569603000000 1.55226827000000  83.36628847000000 -535.43727976913692
1.01587490000000 1.64220610000000  59.20986510000000 -535.39555443483596
1.07196268000000 1.66015841000000 114.90241732000000 -535.45971589761200
1.07626833000000 1.92421028000000 103.71470078999999 -535.44726751724204
0.86689550000000 1.83986736000000 100.22374524000000 -535.45299886701503
1.18151395000000 1.67921639000000 112.08417052000000 -535.44253631165998
1.10492028000000 1.92851420000000 105.84616145000000 -535.44179357425196
0.74492799000000 1.67904618000000 118.84233223000000 -535.38791497740101
0.96553896000000 1.74321603000000 113.90767196000000 -535.46666071003096
0.95819484000000 1.83993529000000  94.08840727000000 -535.46422100062398
0.89076684000000 1.69604355000000 109.06180768000000 -535.46495472947402
0.75002145000000 1.70747346000000 121.67033394000001 -535.38896467217603
1.18342310000000 1.60492802000000 104.07175135000000 -535.44071370275196
1.11300055000000 1.79074612000000  96.32713241000000 -535.45393047914001
0.99993394000000 1.78797962000000  92.61229263000000 -535.46624637712796
0.90108560000000 1.72123152000000  91.30177549000000 -535.46367648384603
0.89757750000000 1.63463735000000 101.33481861999999 -535.46554301385095
1.22899751000000 1.72858164000000  89.06695442000000 -535.43081370935499
1.29085880000000 1.43038699000000 100.10589324000000 -535.37220994519998
0.97540579000000 1.93359590000000 119.86297738000000 -535.44376915381804
0.89297920000000 1.71356231000000 113.74466837000000 -535.46257614152603
1.25409091000000 1.78660329000000 102.19962631000000 -535.42713345738002
1.23418303000000 1.67827306000000  71.42735681000001 -535.40674379187203
0.95672705000000 1.58358090000000  72.12804273000000 -535.42200157862499
1.17253039000000 1.69437858000000 132.43421139000000 -535.42466314099397
1.32706816000000 1.68866019000000 139.38333900000001 -535.38431663718700
0.98307283000000 1.89389482000000  90.93757805000000 -535.45878612843603
1.03173064000000 1.66878075000000 106.22111246999999 -535.46802395347402
1.03132364000000 1.61035357000000 103.46465556000000 -535.46523208180395
1.08430838000000 1.59177637000000 109.72836979000000 -535.45652305411295
1.19306910000000 1.70148794000000  63.41297618000000 -535.40189930518000
1.08683799000000 1.67638396000000  93.47170556000000 -535.45862323722895
0.96969205000000 1.57793758000000  80.32992127000000 -535.44038264878895
1.00614146000000 1.73400790000000  80.37139053000000 -535.45643300762401
0.94048011000000 1.67744806000000  69.14602232000000 -535.43066398876283
0.80964821000000 1.68633376000000 105.07118868000001 -535.43945694770400
1.31043368000000 1.62647472000000 103.19863766000000 -535.41635666462298
0.90139235000000 1.89504392000000 104.29842223000000 -535.45376950988998
1.26991130000000 1.70022746000000 124.77531488000000 -535.41442847996404
0.91138650000000 1.96412085000000 112.43433878000000 -535.44298688340496
0.98913845000000 1.71007940000000  81.11651620000001 -535.45742701524091
1.30098092000000 1.65361405000000  92.58659915000000 -535.41596250829400
0.80535552000000 1.68541854000000 124.20011830000000 -535.42604369547496
0.83924357000000 1.79178281000000  99.39266338000000 -535.44812481012093
1.03356372000000 1.90153617000000  95.18692071000000 -535.45573346886397
0.98578843000000 1.52084953000000  75.68643421000000 -535.41306146955799
1.01905340000000 1.50471367000000 119.22106787000000 -535.44654076396716
1.11298098000000 1.70186857000000 109.18904172000001 -535.45605429034697
1.18984317000000 1.70849167000000  99.28153786999999 -535.44296843487098
1.06261360000000 1.68800521000000  91.19956290000000 -535.46087665975801
0.99729336000000 1.94130767000000 109.49657852000000 -535.45028704135802
0.99359483000000 2.16746636000000 100.51873817000001 -535.42822920881201
1.31947640000000 1.49737297000000 101.00431474000000 -535.39251021148402
0.73912297000000 2.04947144000000 104.69594424000000 -535.35392121280893
1.04029045000000 1.61598773000000  92.61312771999999 -535.45965981847291
1.52396084000000 1.72381756000000 109.23014197000001 -535.37494165085502
0.88110247000000 2.08410518000000 102.52346751000000 -535.42852614371498
1.05467296000000 1.63556287000000 100.69109915000000 -535.46400130749203
0.99677098000000 1.82584980000000 113.83982426000000 -535.45961857141401
0.77734731000000 1.77021533000000  98.89923450000001 -535.41699444886501
1.12293288000000 1.71365725000000  71.94332987999999 -535.42940435212199
1.39377023000000 1.57495608000000 101.92224471999999 -535.39416551693898
1.01246152000000 1.71001512000000 102.54868897999999 -535.46998496926699
1.04333587000000 1.62965425000000 105.76156443000001 -535.46544659295103
0.95313926000000 1.72064964000000 103.90707915000000 -535.47140577839195
0.92364488000000 1.81897367000000  77.26882094000000 -535.45082966561904
1.03781136000000 1.49983513000000  99.52391021000000 -535.44244131190101
1.07067775000000 1.65850585000000 100.83891149999999 -535.46308466400899
0.95382653000000 1.54974511000000 118.62934179000000 -535.45823493661305
0.97758830000000 1.65784031000000 143.24281525000001 -535.43539437028505
1.41613850000000 1.67227733000000 110.66339861000000 -535.39545958252404
1.26278443000000 1.78798382000000 100.01975621000000 -535.42539499657198
1.35619121000000 1.55174493000000 102.36863269000000 -535.39820012592804
1.43424420000000 1.65075931000000 112.18009177000000 -535.39121368437293
0.88555917000000 1.89835839000000 100.28969001999999 -535.45159557473301
1.10889032000000 1.88819440000000  99.40753691000000 -535.44706505440195
0.90467666000000 1.59586860000000  87.51889201000000 -535.45165890554301
0.99273996000000 1.96836238000000 114.81010442000000 -535.44374280196405
1.00474460000000 1.69655413000000  76.52737396000001 -535.44890717712894
1.10611178000000 1.71951482000000 104.31354764000000 -535.45807543239698
0.86379985000000 1.78526920000000  89.72166368000001 -535.45325371278204
0.90983867000000 1.74079054000000  84.75205775000001 -535.45921379531705
0.99055757000000 1.87205409000000  93.41345937000000 -535.46109334795517
0.86522061000000 1.70604125000000 102.51662500000000 -535.46027877444499
0.86740000000000 1.65174339000000  81.01385540000000 -535.44146218499202
1.04450437000000 1.61638891000000  81.48854163999999 -535.44552707698995
1.26936723000000 1.90509744000000 103.19778503000001 -535.41387182614199
1.11470641000000 1.63368807000000  93.74518562999999 -535.45188095949595
1.12139841000000 1.67898236000000  67.86707946000000 -535.41850343710303
1.12913319000000 1.54810595000000  97.82045302000000 -535.44021993947001
1.09751369000000 1.80581263000000 101.41860380999999 -535.45557286249903
0.96081235000000 1.77161760000000  66.33207487999999 -535.43320573939195
1.07922770000000 1.74028753000000 103.43139918000000 -535.46165579780700
0.92710484000000 1.55143903000000 118.54160245000000 -535.45743758670403
0.99847886000000 1.86134569000000  92.45655613000000 -535.46141585993291
1.07700600000000 1.75826917000000 108.70454912000000 -535.45966668337201
0.78416288000000 1.57079387000000 110.64929672000000 -535.41833139385801
1.17593194000000 1.52222408000000 106.96943468000001 -535.42961990989897
1.13533499000000 1.79560960000000  99.25513728999999 -535.45008247849501
0.90415428000000 1.69266507000000 119.70748127000000 -535.46063818911796
1.12099635000000 1.95060836000000 103.19679583999999 -535.43777128665499
1.02421632000000 1.70043884000000 103.91487227000000 -535.46907078159495
0.93298664000000 1.84870838000000 111.02253903000000 -535.45890572506198
0.80780554000000 1.73587095000000  89.32984325000000 -535.43253825726003
0.73416889000000 1.69576459000000 132.24950962000000 -535.36265896268401
0.97931320000000 1.50740472000000  95.22452843000001 -535.44491563667100
1.27047465000000 1.70392938000000 105.73632082000000 -535.42637457296803
0.86859541000000 1.84140751000000  94.97153621000000 -535.45301955714797
0.90131329000000 1.67324028000000  90.89162259000000 -535.46244430059198
0.94803122000000 1.91047667000000 101.37434408999999 -535.45729710224202
1.28737342000000 1.51351749000000 100.40751499000000 -535.40299157294203
1.02413891000000 1.96276488000000  98.16915430000000 -535.45012780071499
0.94845133000000 1.63080268000000 136.65745595999999 -535.44533081324892
0.93541979000000 1.86765289000000 110.51743064999999 -535.45744190462995
1.19197304000000 1.68618516000000  79.70442842999999 -535.42752444192502
1.06241630000000 1.74421703000000  92.16870131000000 -535.46174966231104
1.29999882000000 1.67636451000000  69.83704711999999 -535.39194418090506
1.01493054000000 1.44959558000000 112.39406384999999 -535.43170423577499
1.02958526000000 1.73490583000000 110.52144478000000 -535.46568400935200
0.92593426000000 1.68462993000000 103.76583653000000 -535.47053291636996
1.32810683000000 1.72114595000000 109.63816758000000 -535.41284407557805
1.30769179000000 1.64778973000000 111.45832707000000 -535.41667620868304
0.92835363000000 1.95880389000000 115.86908733999999 -535.44280748380800
1.04724182000000 1.72810741000000 112.23596691000000 -535.46322544790598
0.75747066000000 1.71448532000000  87.06487806000000 -535.39669054252204
1.03519248000000 1.74233728000000  79.35487187000000 -535.45310524275999
1.05864691000000 1.68555895000000 133.20957096000001 -535.44255804482805
0.95120069000000 1.64011176000000  95.59594693000000 -535.46816254344697
0.90189680000000 1.60677415000000  88.68662220000000 -535.45439904631201
1.07156675000000 1.45656259000000  96.58371382999999 -535.41993136430403
0.92535569000000 1.67887269000000  99.93898819000000 -535.47009318135201
0.89545283000000 1.67271201000000  97.39401087000000 -535.46553443334699
0.94849397000000 1.89386507000000  93.07238454000000 -535.45911436726999
0.80689946000000 1.72111289000000 122.56274860000001 -535.42679798238203
0.89956691000000 1.79377331000000  97.28772649000000 -535.46325547414301
0.97837102000000 1.83506370000000 118.02520959000000 -535.45602131169301
1.14188729000000 1.61036218000000 109.56987303000000 -535.44859271351504
1.28210585000000 1.70220353000000  63.81499079000000 -535.38904158195692
1.04648286000000 1.76961239000000 110.16180596000000 -535.46219413022004
0.87862283000000 1.71845045000000 127.51745716000001 -535.44702325362198
1.33969078000000 1.69001283000000 115.13734137000000 -535.40846937168601
0.99140010000000 1.80797783000000  96.15497548000000 -535.46649651068299
1.09150627000000 1.70968791000000  86.50364623000000 -535.45363050269600
1.15207415000000 1.67092273000000 129.41957056000001 -535.43288992611099
1.08389670000000 1.80402478000000 103.75187565000000 -535.45733624276102
1.14112362000000 1.62927644000000  96.84759129000000 -535.44873887657297
0.69999490000000 1.45417174000000 102.54219600000000 -535.30592366796998
1.30271325000000 1.70449290000000  93.28363048999999 -535.41774880818798
1.21482782000000 1.68915021000000  89.03152815000000 -535.43296124700896
0.79268689000000 1.67810930000000 124.93330838999999 -535.41842416295697
0.91015491000000 1.64715501000000 107.70842368000000 -535.46796429128403
0.99795273000000 1.67153806000000  80.86755982000000 -535.45437522081500
1.01124501000000 1.76185123000000 108.02668911000001 -535.46691235384105
0.86315775000000 1.66249484000000 114.92466550000000 -535.45646524782603
0.96096368000000 1.55414159000000  70.82666533000000 -535.41003805158505
1.05400770000000 1.62962115000000 109.84119612000001 -535.46347051543705
0.84038665000000 2.03975430000000 100.62425718999999 -535.42240012321997
0.90972047000000 1.83434612000000 100.22536319000000 -535.46173317515002
1.00983814000000 1.82371393000000 104.02282142000000 -535.46388334603103
0.92568308000000 1.67618685000000 115.77783895000000 -535.46628512931102
1.07307083000000 1.66893732000000  73.05384757000000 -535.43403292764697
1.04358650000000 1.59916211000000 122.82465424999999 -535.45506800486999
0.80415922000000 1.61361838000000 117.15663655000000 -535.43102521003595
0.92233957000000 1.89617203000000  89.92571181000000 -535.45624250878598
0.89747288000000 1.59364721000000 106.29126180000000 -535.46291801349400
0.97560309000000 1.67410683000000 103.02305509000000 -535.47182436803598
1.13656446000000 1.54710417000000 105.04967222000001 -535.44173068067403
1.04705351000000 1.77593313000000 109.12002038999999 -535.46221998236001
1.12762044000000 1.68705892000000  64.32688793000000 -535.41090211995697
0.99823640000000 1.66103102000000  88.58726034999999 -535.46329120997405
0.76732554000000 1.71240625000000 109.20522473000000 -535.41125664335402
1.18980229000000 1.68791702000000  97.51630564000000 -535.44248897011516
0.99724338000000 1.84592174000000 110.94262611000001 -535.45960700086300
1.13564665000000 1.51802156000000  98.23817550000000 -535.43237356798397
1.06615723000000 1.71169718000000  95.09122171000000 -535.46292367710498
0.95927211000000 2.02355988000000 109.92762643000000 -535.44097250884499
0.93563295000000 1.78088553000000 105.89319454000000 -535.46726259943500
0.95310614000000 1.51445967000000 120.10642616000000 -535.45100494172300
1.20510428000000 1.69450102000000 114.50320383000000 -535.43638658891405
1.23260765000000 1.77819447000000  99.21096763000000 -535.43219658373903
0.95733237000000 1.62219204000000 106.99559888000000 -535.46983488737499
1.00205758000000 1.70248221000000  81.12162225000000 -535.45655641365204
1.03645879000000 1.66085358000000  95.11501754000000 -535.46527911809699
1.28091156000000 1.73084199000000 100.40721501000000 -535.42401629565200
0.84328851000000 1.64137065000000  90.04263834000000 -535.44553547659916
1.05668725000000 1.67671237000000  90.57292914999999 -535.46072503455503
0.86557499000000 1.79023416000000  89.32822487000000 -535.45326482011399
1.00104124000000 1.76191771000000  97.53579963000000 -535.46879283886994
0.93887063000000 2.21532063000000  90.42137221999999 -535.42388663487600
1.05987787000000 1.60888408000000  90.54012840000000 -535.45464320285805
0.86233506000000 1.71176498000000  90.83532571000001 -535.45514392534301
1.00134864000000 1.64567908000000  84.68884808000000 -535.45732836033005
0.90267636000000 1.60744010000000 107.84627030000000 -535.46485005913701
0.92038147000000 1.76006740000000 125.98635154999999 -535.45238461051804
1.03979965000000 1.73708325000000 141.56484821999999 -535.42978403009295
0.94926897000000 1.61163813000000 107.11630153999999 -535.46894168297501
0.96782856000000 1.87665668000000 106.44608269000000 -535.45959764412999
0.92595267000000 1.75155615000000 119.66158540000001 -535.46008611764091
0.96125298000000 1.62224943000000 132.62327922000000 -535.45066471635005
0.82991450000000 1.47697821000000 108.65480370000000 -535.42145542455103
1.01808249000000 1.58689435000000  93.73913477000001 -535.45892010145405
0.84202217000000 1.75143041000000 114.37094936000000 -535.44701363808304
0.99548740000000 1.90344786000000 103.32454117000000 -535.45728872698203
1.08357988000000 2.00322890000000  99.41289558000000 -535.43865265971601
1.22224975000000 1.78421393000000 104.27905013000000 -535.43348354903901
0.92749029000000 1.80059714000000 101.43409290000000 -535.46617093685597
1.14342709000000 1.73996564000000 112.16941839000000 -535.44809266499396
0.99288944000000 1.70528249000000  68.75882353999999 -535.43426758503995
0.97375476000000 1.51748673000000  85.10527352000000 -535.43340757433202
1.01149709000000 1.70250367000000 112.40072834000000 -535.46740812594101
0.96089279000000 1.59343043000000  87.32128861000000 -535.45501459497495
0.99711198000000 1.84301472000000  92.45328016000001 -535.46290710663504
1.04798835000000 2.04598625000000  97.83943385000001 -535.43851942490301
0.91963648000000 1.76561305000000  61.37591490000000 -535.41657296630501
0.75621858000000 1.77800767000000 112.51697167000000 -535.39656307873099
1.02740796000000 1.73119307000000  82.02877855000000 -535.45695602499802
0.95520143000000 2.04735694000000  85.71423793000000 -535.44180626106197
1.12059629000000 1.80123338000000  95.70804694000000 -535.45195897641497
0.88293634000000 1.78206704000000 102.69228398000000 -535.46105128064096
0.92043884000000 1.80116755000000 107.51564374000000 -535.46395305791998
0.99912757000000 1.65472462000000  84.44802107000000 -535.45796982272998
0.76859598000000 1.61253969000000  92.44522823000000 -535.40523303098598
0.94475444000000 1.45840879000000  90.50826275000000 -535.41989159842092
0.94687427000000 1.65361114000000 134.12646303000000 -535.44871902140403
0.95516933000000 1.60686342000000  88.74794523000000 -535.45876883326196
0.80738407000000 1.68811028000000  96.88285127000000 -535.43700299937598
1.01251130000000 1.53981315000000  95.15002118000000 -535.45172001536002
1.03667496000000 1.84048985000000 109.91673532000000 -535.45771272272600
0.93654084000000 1.74557316000000  64.08643118000001 -535.42430198815100
1.01521330000000 1.62083154000000  94.29863290999999 -535.46379580196003
0.89179795000000 1.63222109000000  96.49779928000000 -535.46247716496100
0.93938494000000 1.60445584000000  91.77122579000000 -535.46118941508803
0.79648662000000 1.70872025000000  77.09005074000000 -535.40981325910298
0.98250409000000 1.83618445000000  91.76755611999999 -535.46371417809098
1.16042487000000 1.69014057000000 132.78879050000000 -535.42657929723998
0.99124897000000 1.81986026000000 120.07940365000000 -535.45516073115300
1.04632750000000 1.95825804000000 104.34373686000001 -535.44695580021005
0.90833747000000 1.70392837000000  72.76805069000000 -535.43855816640905
1.24096252000000 1.89813062000000 101.53644322000000 -535.42085991499516
0.94718104000000 1.48834750000000 119.16809272000000 -535.44506847895104
1.11782751000000 1.57392506000000  99.19177505000000 -535.44755525913195
1.01243197000000 1.60514683000000 119.00960840000000 -535.46161477654300
0.96844723000000 1.91856789000000 105.98719045999999 -535.45531204295503
0.97563048000000 1.55052712000000 105.10743185000000 -535.46125029971597
0.87193548000000 1.70067140000000 115.89718127000000 -535.45738075908298
1.12692428000000 1.48220486000000  99.88655221000000 -535.42430742576403
0.86426918000000 1.71098924000000  98.53255668000000 -535.45944591271200
1.10745522000000 1.67329162000000 145.38325104000000 -535.41728153387601
1.34258474000000 1.69786060000000 105.24302365000000 -535.41148537538595
0.97206722000000 1.63360213000000  79.97054244000000 -535.44944988382997
1.03768185000000 1.58354159000000 112.05288654000000 -535.46109486049500
0.83316888000000 1.70105598000000  98.91040378000000 -535.44941875507095
0.76778044000000 1.75945315000000  91.63534982000000 -535.40800525718498
0.94911604000000 1.68979777000000  95.35325055000000 -535.47002847411397
0.92837346000000 1.69343868000000 118.56477504000000 -535.46409141382003
1.09724789000000 1.70707638000000 110.43418864000000 -535.45797684777597
0.96086210000000 1.73577325000000 115.13084019000000 -535.46622281285897
0.89475255000000 1.54305376000000 112.67346947000000 -535.45496196457805
0.86361688000000 1.54115110000000 100.64283134999999 -535.44635374380800
0.87327310000000 1.78068999000000 101.76230305000000 -535.45909692073997
1.40022706000000 1.61305399000000 102.08002080000000 -535.39696558883804
1.19329623000000 1.66119947000000  95.40813537000000 -535.44015505707500
0.88981481000000 1.97651931000000 104.24837303000000 -535.44251848322892
0.96412112000000 1.54136775000000  99.91471876999999 -535.45762034128995
0.99645460000000 1.53497974000000 132.38078046000001 -535.44250958700002
0.98519046000000 1.82639116000000 105.96655248000000 -535.46429156887996
1.01098130000000 1.48848636000000 109.97698076000000 -535.44541734960796
1.36083098000000 1.66800529000000 115.66707431000000 -535.40402611055504
1.03438997000000 1.49445834000000  98.55718803000001 -535.44037394993802
0.97656742000000 1.93358194000000 109.04372386999999 -535.45205959910493
0.97586149000000 1.61752531000000  83.69775863000000 -535.45339658982698
1.05172868000000 1.65922769000000 136.17950279999999 -535.43981687096198
0.90888651000000 1.71421445000000 115.22074410000000 -535.46393734604601
1.01702538000000 1.62221680000000 109.99910985000000 -535.46688487862195
1.00834451000000 1.74334698000000  72.62296670000001 -535.44443947197396
0.95014138000000 1.87754367000000  84.27604180000000 -535.45664284047803
0.95247282000000 2.09109028000000  88.01636030000000 -535.43761295037996
0.85745733000000 1.71612596000000 111.10904517000000 -535.45578595760492
1.01030808000000 1.61027235000000 119.01615701999999 -535.46208898484997
1.01991737000000 1.74281773000000 137.30389122000000 -535.43793170552897
1.03794885000000 1.78647572000000  89.35569101000000 -535.46174625067101
1.19063719000000 1.69928395000000  97.28785680000000 -535.44238083890002
1.08174719000000 1.76622608000000 103.61303081000000 -535.46007739726201
0.87840264000000 1.96660960000000  99.19154183000001 -535.44267948338893
0.81425840000000 1.62804372000000 120.73165695000000 -535.43408809299399
0.95053671000000 1.75854926000000 107.95439399999999 -535.46866072958005
1.09418443000000 1.80406713000000  96.06364935000001 -535.45608757969103
1.10421226000000 1.90241337000000 105.95747511000000 -535.44463521936302
0.95368370000000 1.54998671000000 123.94170559000000 -535.45439275811896
1.04088731000000 1.66636561000000  66.98985933000000 -535.42305274759201
1.00752244000000 1.86321613000000 104.12663188000001 -535.46045393743498
1.01936210000000 1.69502431000000 129.70787515999999 -535.45107107525291
1.25223351000000 1.43643260000000 104.92088041000000 -535.38597550819895
1.03778593000000 1.74931574000000 125.08568319000000 -535.45208479885605
1.00557399000000 1.66146278000000  81.77466015000000 -535.45448425539996
1.34486789000000 1.69437019000000 116.19856195000000 -535.40666733756802
1.03893558000000 1.93610092000000 108.86141675000000 -535.44812306277402
0.93054255000000 1.57616086000000  86.26796383000000 -535.44909519374892
0.96268324000000 1.97371236000000 103.23222697000000 -535.45007831661701
0.93882998000000 1.57881846000000 113.21769508000000 -535.46415159675200
1.01382579000000 1.81306362000000  91.13764784000000 -535.46341750106603
0.86903730000000 1.61939737000000  80.63597718000000 -535.43705342064698
0.96147847000000 1.72660859000000 118.20721970000000 -535.46433555648298
0.95484987000000 1.67412137000000  90.50075266000000 -535.46651568151697
0.98337607000000 1.75894357000000 122.93745507000000 -535.45759209945697
0.92217796000000 1.80961703000000  79.41806778000000 -535.45363093384003
1.09834612000000 1.65595063000000 133.50321708999999 -535.43695356285104
1.01044796000000 1.85723485000000 116.45413506000000 -535.45374399314301
0.94957895000000 1.93084725000000  87.98538791999999 -535.45418313217294
1.14712175000000 1.70207765000000  65.92043689000000 -535.41348947761117
1.05582339000000 1.64797494000000  92.79737466000000 -535.46089103048996
0.87081774000000 1.87946010000000  95.41278135000000 -535.45027665910402
1.26627158000000 1.70633400000000  96.50464825000000 -535.42668983414796
1.26257017000000 1.68160836000000  78.18811857999999 -535.41134612626900
1.08381664000000 1.67672935000000 107.74742362000001 -535.46126390014501
1.25598262000000 2.00100985000000 102.61896977000001 -535.40654753714796
0.82783487000000 1.69117426000000  84.07806979999999 -535.43569576920697
1.12973918000000 1.64778187000000  88.25413369000000 -535.44593232003399
1.07643200000000 1.72510819000000  77.52015270000000 -535.44548783544406
0.97807789000000 1.43681750000000  95.90523899000000 -535.41796088674596
0.92916351000000 1.57236363000000  79.53255661999999 -535.43572697526497
0.80662079000000 1.76684955000000  92.82926216000000 -535.43328445794498
0.91039250000000 1.75463941000000 113.98825351000001 -535.46278558420397
1.08365048000000 1.71686321000000  66.25661242000000 -535.42350572850603
1.07061220000000 1.78625302000000 114.90974810000000 -535.45509365269902
0.81065883000000 1.67570574000000  95.41711152000001 -535.43776375557900
1.45057782000000 1.71649367000000 114.97255824000000 -535.38605704748295
0.99319787000000 1.44004176000000  79.84845906000000 -535.38725249916502
0.83673910000000 1.70009656000000 134.04062759000001 -535.42761037313005
1.30080015000000 1.69553024000000 138.85315639999999 -535.39007284550803
0.87033460000000 1.69986649000000  68.65344946000000 -535.42067684519805
0.98215980000000 1.57195544000000 110.72681258000000 -535.46421694062894
1.10869969000000 1.64862353000000 118.45506412000000 -535.45151652530797
1.21297121000000 1.67528216000000  61.27047065000000 -535.39181168353400
1.01019936000000 1.54578355000000 101.97690423000000 -535.45769971658501
0.97867809000000 1.67045815000000  79.55162561000000 -535.45276253124598
1.16156923000000 1.67876139000000 106.90031690000001 -535.44819848527595
0.97063427000000 1.94714333000000 122.18764717000001 -535.43992123235500
1.07450681000000 1.64603507000000  77.75181200000000 -535.43985206463003
1.21932826000000 1.85277968000000 100.93436026000001 -535.42957638500195
1.28132104000000 1.59572908000000 102.52364996999999 -535.41964086903204
0.90323704000000 1.95461660000000 102.58318335000000 -535.44793627941897
1.04336462000000 1.81252784000000 116.21150206999999 -535.45526412280401
1.04107511000000 1.81499986000000 107.04040238000000 -535.46086393386702
1.24174801000000 1.65306289000000 103.64738646000001 -535.43200458024296
1.13260713000000 1.67325680000000  77.03857762000000 -535.43317206772201
0.96230201000000 1.87770370000000 113.62638353000000 -535.45531251980003
1.20307366000000 1.57422863000000 105.44095602000000 -535.43344594445796
0.90095136000000 1.48049310000000 108.64537793000000 -535.44091641939099
1.00268753000000 1.78169462000000  83.41731079000000 -535.46006307014795
0.89036263000000 1.54733951000000  89.33038291000000 -535.44237801112092
0.97349982000000 1.80131471000000 103.74652550000000 -535.46722687279100
1.05874232000000 1.74529434000000 106.32160303000001 -535.46359826624200
1.01756930000000 1.75932600000000  70.28530300000000 -535.44023347591497
1.12338486000000 2.05740067000000 104.21946461000000 -535.42490022388893
1.11261402000000 1.71565910000000 140.04137921000000 -535.42331562758295
1.00049357000000 1.59904986000000  91.25471138000000 -535.45956889535103
1.02907079000000 1.61157544000000 118.24634938000000 -535.46106824187291
1.13731638000000 1.52795576000000 100.21922116000000 -535.43583263611004
0.94989347000000 1.72625264000000 102.74867184999999 -535.47125149614203
1.13933314000000 1.69153660000000 124.66782327000000 -535.44030302339797
0.85823460000000 1.60978510000000 119.86867500000000 -535.45053218640896
1.24011757000000 1.61601604000000  99.82191994999999 -535.42942258804101
0.97213815000000 1.75355079000000  88.38798026000001 -535.46587806285800
1.11805333000000 2.05528541000000 104.64591686000000 -535.42584678204491
1.35090587000000 1.69955295000000 103.80581094000000 -535.40989137512895
1.04323152000000 1.79478265000000 118.17507831000000 -535.45512096256004
1.01692728000000 1.85012779000000 103.73183926999999 -535.46113929626495
0.95012640000000 1.54857746000000  99.24558227000000 -535.45853365691403
1.04541467000000 1.84505911000000 109.28675926000000 -535.45670885089601
1.39809357000000 1.61900270000000 106.63766184000001 -535.39817436275291
0.87573530000000 1.80346908000000  90.12244461000000 -535.45560790270497
1.01309775000000 1.62637589000000  58.85103771000000 -535.39030566240604
1.05038785000000 1.46325125000000 104.19712603000001 -535.43145311307296
1.23627588000000 1.67959443000000 100.33975541000000 -535.43356538834701
0.97684044000000 1.81767522000000 110.15346266000000 -535.46336335557100
0.99151748000000 1.72228933000000  72.22436691999999 -535.44315402046891
0.86712302000000 1.70001289000000  71.80160026999999 -535.42758459976699
1.01796809000000 1.51299602000000  91.46638657000000 -535.44005013310596
0.92803476000000 1.68529528000000  63.83797115000000 -535.41553847694502
1.46185906000000 1.69492173000000  86.61087261999999 -535.38063208162396
0.99077196000000 1.70652497000000 131.14321121000000 -535.45065813867495
0.95125988000000 1.51991065000000  94.64807209000000 -535.44794116014600
0.92176803000000 1.62902604000000 129.37228902999999 -535.45320116274297
1.16401024000000 1.50700131000000 102.38604085000000 -535.42676115862696
1.12182608000000 1.73604544000000 107.53509724000000 -535.45415492820996
0.93051407000000 1.74410684000000 114.37005215000001 -535.46512159489805
1.02887979000000 1.65714723000000 111.68258896000000 -535.46649325594683
0.97205709000000 1.93319764000000  84.77203840999999 -535.45284035793998
0.93438637000000 1.78625522000000 105.04110473999999 -535.46705114730798
1.03036949000000 1.63930403000000 121.49955649000000 -535.45943609251299
0.85112281000000 2.01459477000000 102.35370666000000 -535.42869194565401
1.19475274000000 1.65654902000000  87.02457303000000 -535.43336511153802
1.07788934000000 1.57564190000000  98.49180848000000 -535.45370657538001
1.03578315000000 1.82370230000000 104.86651327000000 -535.46145581047597
0.96197900000000 1.66817604000000  59.31920874000000 -535.40005152880099
0.96535550000000 1.67792788000000 127.23201229999999 -535.45714868926700
1.00912052000000 1.56988827000000 123.23473610000001 -535.45548561503199
1.02352220000000 1.67107748000000 117.30544285000001 -535.46376146848604
1.09702068000000 1.79171406000000  99.26437778000000 -535.45668645039598
0.94774520000000 1.51540851000000 103.51193752000000 -535.45318751104605
1.00156952000000 1.68641058000000 115.10042366000000 -535.46681106746996
0.90156023000000 1.56225429000000 106.72330482000000 -535.45959010440095
1.00621403000000 1.89924180000000 115.16883475000000 -535.45062522849298
1.25568040000000 1.69884529000000 102.22505468999999 -535.42981376458295
0.87520534000000 1.72678821000000  72.15730718000000 -535.43255809291293
0.96590642000000 1.61031814000000 122.68036981000000 -535.46106264686398
1.06555695000000 1.62375960000000  90.02083775000000 -535.45516493596494
0.94172779000000 1.57310351000000  69.89561401000000 -535.41173507754195
0.97036439000000 1.70836115000000  68.73389515000000 -535.43451156031801
1.26598319000000 1.69667369000000 127.92533276000000 -535.41181804481903
1.03726535000000 1.68483918000000 122.02280331999999 -535.45821775783600
1.03322605000000 1.66239321000000 115.65736142000000 -535.46396073804794
0.85640744000000 2.11845417000000 106.96146576000000 -535.41610676058701
1.04058989000000 1.70697421000000  88.78662731999999 -535.46205963233399
1.21623438000000 1.68240570000000 106.54687316000000 -535.43752958749405
1.03077745000000 1.60502861000000 113.22894313000000 -535.46331957611301
0.86503093000000 1.74701941000000  85.39570586000001 -535.45106252680000
1.06662633000000 1.76572651000000 119.17844071000000 -535.45360398498894
1.03669236000000 1.69022642000000 149.27196942000000 -535.42030348823903
1.01014605000000 1.70743516000000 132.57183988000000 -535.44754569575298
0.88827056000000 1.83942852000000 105.00469860000000 -535.45690738150995
1.07146349000000 1.53886718000000 110.04337978000000 -535.45081124190494
1.09919968000000 1.65812190000000  96.44679351000001 -535.45750409000595
0.95336085000000 1.82953145000000 126.66919387000000 -535.44737005736397
0.88493135000000 1.72876848000000 102.44946172000000 -535.46421659836699
0.92882897000000 1.73696891000000  95.88660593000000 -535.46888933798095
0.82658256000000 1.69704544000000 113.37564374000000 -535.44434285449904
0.95835598000000 1.55820232000000  76.83213542000000 -535.42758221209999
0.96464303000000 1.46822874000000 139.05401092000000 -535.42149139047297
0.96573790000000 1.50812517000000  79.84117320000000 -535.41896014644101
1.42995165000000 1.84086937000000 102.24527021999999 -535.38679308985695
1.31741462000000 1.69365695000000 102.34344067000001 -535.41690878263296
0.88026357000000 1.54696351000000 106.12932309000000 -535.45333955296201
1.02823422000000 1.80290475000000 117.78120708000000 -535.45628843798204
0.92807638000000 1.70276062000000  63.74098119000000 -535.41775843995504
0.91731462000000 1.72290660000000 104.54637545999999 -535.46904950951796
0.92421046000000 1.72294737000000 114.27932887000000 -535.46578947555895
0.88774620000000 1.76041994000000  98.22858478000001 -535.46320907865697
0.95339800000000 2.08886206000000  83.16092894000001 -535.43654080759097
1.00226672000000 1.63628310000000  69.68166711000001 -535.42696265797701
1.12722288000000 1.69454008000000 142.97420858999999 -535.41712324683692
0.93771826000000 1.58390144000000 106.03254978000000 -535.46583508083802
1.28817198000000 1.68253108000000 120.32322755000000 -535.41533290196196
0.98025695000000 1.57535900000000 118.08420464000000 -535.46153784340891
1.16245483000000 1.59630813000000 107.79079002000000 -535.44388004289794
0.76642123000000 1.49203948000000 103.53046655999999 -535.38837363387597
1.17924049000000 1.73136151000000 113.52205041000001 -535.44096450732400
0.91224048000000 1.79204731000000  91.24510739000000 -535.46318978375700
1.03561808000000 1.70957665000000 105.42179410999999 -535.46763485974202
1.00130934000000 1.57378198000000 103.53839963000000 -535.46352032435698
0.82731462000000 1.71960515000000 118.53278467000000 -535.44011691123399
0.99264340000000 1.81291184000000  60.04557409000000 -535.42044337220898
1.03967640000000 1.67371026000000 110.08328607000000 -535.46620244034091
1.17313375000000 1.62045884000000 102.65919221000000 -535.44387297409901
0.85209995000000 1.73379500000000  77.78014544000000 -535.43699067059902
0.77491518000000 1.66679742000000 115.53833591999999 -535.41490840342396
1.41981197000000 1.64503910000000 104.66043325000000 -535.39526608663095
0.99753629000000 1.73167685000000  89.02405675000000 -535.46582690977004
0.95875969000000 1.55645581000000  96.21179607000001 -535.45807070597698
0.89778183000000 1.76132857000000  86.29112400000000 -535.45877675081897
1.10686106000000 1.83314836000000 101.48451061000000 -535.45201594412492
0.89458101000000 1.53696658000000 116.02467557000000 -535.45276044726404
0.89767477000000 1.72557279000000  75.44982983000000 -535.44365652106296
0.99115805000000 1.54826403000000 121.82178541000000 -535.45506209765597
0.95311224000000 1.85531480000000 115.41127328000000 -535.45612756628202
0.93684159000000 1.58147996000000 137.29981975000001 -535.44224032512091
1.05899210000000 1.68376220000000 111.50085232000001 -535.46330489859895
0.99812362000000 1.66089609000000  88.92764692999999 -535.46362381491497
0.98835183000000 1.80976437000000 100.30641301999999 -535.46671149885299
1.05453552000000 1.75243314000000  86.51885497000001 -535.45882415724395
0.96579691000000 1.59721361000000 108.31793437000000 -535.46775491563096
1.05097642000000 1.60466653000000 107.98635417000000 -535.46254953562300
0.98462819000000 1.84080533000000 123.17376623000000 -535.45018526346303
1.15432535000000 1.72281017000000 104.79951274000000 -535.44948427136092
0.98301806000000 1.68005800000000 139.06782784000001 -535.44089283090000
0.99999862000000 1.66384072000000 108.17701155000000 -535.47009259863103
1.11891519000000 1.77143103000000  96.23057841000001 -535.45389009558005
0.95132899000000 1.78438834000000  86.83994178000000 -535.46365540265117
1.02804741000000 1.50633645000000 103.05409966000001 -535.44738517166093
1.04253991000000 1.92721125000000  97.39965537000000 -535.45228128150700
1.00707471000000 1.90973877000000  94.32689868000000 -535.45694330998197
1.01102704000000 1.73251539000000 128.00465073999999 -535.45206280754701
0.96325634000000 1.79520044000000  86.87346531999999 -535.46352645170100
0.90975965000000 1.66715687000000 104.24029139000000 -535.46873556967500
1.25890908000000 1.62217183000000 103.23467334000000 -535.42676621016506
0.92221831000000 1.65914049000000 152.59125875999999 -535.42004298891504
1.35632644000000 1.73671527000000  95.75180493000001 -535.40727421347697
0.98214442000000 1.69171103000000  74.33398129000000 -535.44516605844797
0.90735935000000 1.64527547000000 112.50814649000000 -535.46604980360303
0.64321608000000 1.68888476000000 103.00000000000000 -535.24584624609099
0.65075377000000 1.68888476000000 103.00000000000000 -535.26133710146803
0.65829146000000 1.68888476000000 103.00000000000000 -535.27595724223102
0.68090452000000 1.68888476000000 103.00000000000000 -535.31502295963696
0.68844221000000 1.68888476000000 103.00000000000000 -535.32657847441499
0.69597990000000 1.68888476000000 103.00000000000000 -535.33746150391903
0.70351759000000 1.68888476000000 103.00000000000000 -535.34770560834204
0.71105528000000 1.68888476000000 103.00000000000000 -535.35734392234804
0.71859296000000 1.68888476000000 103.00000000000000 -535.36640390043692
0.72613065000000 1.68888476000000 103.00000000000000 -535.37491547212301
0.73366834000000 1.68888476000000 103.00000000000000 -535.38290573439599
0.74120603000000 1.68888476000000 103.00000000000000 -535.39040039546398
0.74874372000000 1.68888476000000 103.00000000000000 -535.39742385789498
0.75628141000000 1.68888476000000 103.00000000000000 -535.40399928492900
0.76381910000000 1.68888476000000 103.00000000000000 -535.41014866814396
0.77135678000000 1.68888476000000 103.00000000000000 -535.41589288359205
0.77889447000000 1.68888476000000 103.00000000000000 -535.42125178690299
0.78643216000000 1.68888476000000 103.00000000000000 -535.42624421951291
0.79396985000000 1.68888476000000 103.00000000000000 -535.43088809705603
0.80150754000000 1.68888476000000 103.00000000000000 -535.43520044874799
0.80904523000000 1.68888476000000 103.00000000000000 -535.43919746394602
0.81658291000000 1.68888476000000 103.00000000000000 -535.44289546887205
0.82412060000000 1.68888476000000 103.00000000000000 -535.44630721293402
0.83165829000000 1.68888476000000 103.00000000000000 -535.44944759146995
0.83919598000000 1.68888476000000 103.00000000000000 -535.45232986256599
0.84673367000000 1.68888476000000 103.00000000000000 -535.45496664661005
0.86180905000000 1.68888476000000 103.00000000000000 -535.45955121048303
0.86934673000000 1.68888476000000 103.00000000000000 -535.46152131433291
0.87688442000000 1.68888476000000 103.00000000000000 -535.46329063865403
0.88442211000000 1.68888476000000 103.00000000000000 -535.46486905475103
0.89195980000000 1.68888476000000 103.00000000000000 -535.46626597940804
0.89949749000000 1.68888476000000 103.00000000000000 -535.46749038208600
0.90703518000000 1.68888476000000 103.00000000000000 -535.46855080919602
0.91457286000000 1.68888476000000 103.00000000000000 -535.46945540882905
0.92211055000000 1.68888476000000 103.00000000000000 -535.47021195090895
0.92964824000000 1.68888476000000 103.00000000000000 -535.47082784356701
0.93718593000000 1.68888476000000 103.00000000000000 -535.47131015146601
0.94472362000000 1.68888476000000 103.00000000000000 -535.47166561485699
0.95226131000000 1.68888476000000 103.00000000000000 -535.47190065616303
0.95979899000000 1.68888476000000 103.00000000000000 -535.47202141668004
0.96733668000000 1.68888476000000 103.00000000000000 -535.47203374300500
0.97487437000000 1.68888476000000 103.00000000000000 -535.47194322312703
0.98241206000000 1.68888476000000 103.00000000000000 -535.47175518712493
0.98994975000000 1.68888476000000 103.00000000000000 -535.47147472465099
1.02763819000000 1.68888476000000 103.00000000000000 -535.46884854625102
1.03517588000000 1.68888476000000 103.00000000000000 -535.46810819083998
1.04271357000000 1.68888476000000 103.00000000000000 -535.46730514352203
1.05025126000000 1.68888476000000 103.00000000000000 -535.46644292072597
1.05778894000000 1.68888476000000 103.00000000000000 -535.46552488475402
1.06532663000000 1.68888476000000 103.00000000000000 -535.46455424804901
1.07286432000000 1.68888476000000 103.00000000000000 -535.46353407832703
1.08793970000000 1.68888476000000 103.00000000000000 -535.46135674686093
1.09547739000000 1.68888476000000 103.00000000000000 -535.46020506535797
1.10301508000000 1.68888476000000 103.00000000000000 -535.45901482640102
1.11055276000000 1.68888476000000 103.00000000000000 -535.45778847904603
1.11809045000000 1.68888476000000 103.00000000000000 -535.45652836198997
1.12562814000000 1.68888476000000 103.00000000000000 -535.45523671271405
1.13316583000000 1.68888476000000 103.00000000000000 -535.45391567295405
1.14070352000000 1.68888476000000 103.00000000000000 -535.45256728555705
1.14824121000000 1.68888476000000 103.00000000000000 -535.45119350870198
1.16331658000000 1.68888476000000 103.00000000000000 -535.44837719627117
1.17085427000000 1.68888476000000 103.00000000000000 -535.44693816024596
1.17839196000000 1.68888476000000 103.00000000000000 -535.44548074860495
1.19346734000000 1.68888476000000 103.00000000000000 -535.44251762333499
1.20100503000000 1.68888476000000 103.00000000000000 -535.44101417524200
1.20854271000000 1.68888476000000 103.00000000000000 -535.43949822947502
1.21608040000000 1.68888476000000 103.00000000000000 -535.43797109988498
1.22361809000000 1.68888476000000 103.00000000000000 -535.43643404378599
1.23115578000000 1.68888476000000 103.00000000000000 -535.43488826368605
1.23869347000000 1.68888476000000 103.00000000000000 -535.43333491643898
1.24623116000000 1.68888476000000 103.00000000000000 -535.43177509812097
1.25376884000000 1.68888476000000 103.00000000000000 -535.43020987288298
1.26130653000000 1.68888476000000 103.00000000000000 -535.42864024308699
1.28391960000000 1.68888476000000 103.00000000000000 -535.42391441461200
1.29145729000000 1.68888476000000 103.00000000000000 -535.42233644596297
1.29899497000000 1.68888476000000 103.00000000000000 -535.42075851602203
1.30653266000000 1.68888476000000 103.00000000000000 -535.41918139778090
1.31407035000000 1.68888476000000 103.00000000000000 -535.41760583834491
1.32160804000000 1.68888476000000 103.00000000000000 -535.41603254832296
1.32914573000000 1.68888476000000 103.00000000000000 -535.41446220888997
1.33668342000000 1.68888476000000 103.00000000000000 -535.41289547239899
1.34422111000000 1.68888476000000 103.00000000000000 -535.41133296244095
1.35929648000000 1.68888476000000 103.00000000000000 -535.40822298906403
1.37437186000000 1.68888476000000 103.00000000000000 -535.40513675473005
1.38190955000000 1.68888476000000 103.00000000000000 -535.40360383567804
1.38944724000000 1.68888476000000 103.00000000000000 -535.40207835789295
1.39698492000000 1.68888476000000 103.00000000000000 -535.40056078234090
1.40452261000000 1.68888476000000 103.00000000000000 -535.39905154264090
1.41206030000000 1.68888476000000 103.00000000000000 -535.39755105707695
1.41959799000000 1.68888476000000 103.00000000000000 -535.39605972513004
1.42713568000000 1.68888476000000 103.00000000000000 -535.39457792852795
1.43467337000000 1.68888476000000 103.00000000000000 -535.39310602992498
1.44221106000000 1.68888476000000 103.00000000000000 -535.39164437838895
1.44974874000000 1.68888476000000 103.00000000000000 -535.39019330486497
1.45728643000000 1.68888476000000 103.00000000000000 -535.38875312191999
1.46482412000000 1.68888476000000 103.00000000000000 -535.38732413388198
1.47236181000000 1.68888476000000 103.00000000000000 -535.38590662568799
1.47989950000000 1.68888476000000 103.00000000000000 -535.38450087132605
1.48743719000000 1.68888476000000 103.00000000000000 -535.38310712866405
1.49497487000000 1.68888476000000 103.00000000000000 -535.38172564797503
1.50251256000000 1.68888476000000 103.00000000000000 -535.38035665699692
1.51005025000000 1.68888476000000 103.00000000000000 -535.37900038201803
1.51758794000000 1.68888476000000 103.00000000000000 -535.37765703189700
1.52512563000000 1.68888476000000 103.00000000000000 -535.37632680462900
1.53266332000000 1.68888476000000 103.00000000000000 -535.37500988998704
1.54020101000000 1.68888476000000 103.00000000000000 -535.37370646362001
1.54773869000000 1.68888476000000 103.00000000000000 -535.37241669478396
1.55527638000000 1.68888476000000 103.00000000000000 -535.37114073704299
1.56281407000000 1.68888476000000 103.00000000000000 -535.36987873908299
1.57035176000000 1.68888476000000 103.00000000000000 -535.36863083468700
1.57788945000000 1.68888476000000 103.00000000000000 -535.36739715966405
1.58542714000000 1.68888476000000 103.00000000000000 -535.36617782694395
1.59296482000000 1.68888476000000 103.00000000000000 -535.36497295192316
1.60050251000000 1.68888476000000 103.00000000000000 -535.36378263019901
1.61557789000000 1.68888476000000 103.00000000000000 -535.36144602908996
1.62311558000000 1.68888476000000 103.00000000000000 -535.36029991154101
1.63065327000000 1.68888476000000 103.00000000000000 -535.35916867736000
1.63819095000000 1.68888476000000 103.00000000000000 -535.35805239286799
1.64572864000000 1.68888476000000 103.00000000000000 -535.35695110869403
1.65326633000000 1.68888476000000 103.00000000000000 -535.35586487295996
1.66080402000000 1.68888476000000 103.00000000000000 -535.35479373131602
1.66834171000000 1.68888476000000 103.00000000000000 -535.35373771340403
1.67587940000000 1.68888476000000 103.00000000000000 -535.35269684895502
1.68341709000000 1.68888476000000 103.00000000000000 -535.35167115705804
1.69095477000000 1.68888476000000 103.00000000000000 -535.35066065616900
1.69849246000000 1.68888476000000 103.00000000000000 -535.34966534981800
1.70603015000000 1.68888476000000 103.00000000000000 -535.34868524336002
1.71356784000000 1.68888476000000 103.00000000000000 -535.34772033172317
1.72110553000000 1.68888476000000 103.00000000000000 -535.34677060520801
1.72864322000000 1.68888476000000 103.00000000000000 -535.34583604719796
1.73618090000000 1.68888476000000 103.00000000000000 -535.34491664240602
1.74371859000000 1.68888476000000 103.00000000000000 -535.34401235866403
1.75125628000000 1.68888476000000 103.00000000000000 -535.34312316582202
1.76633166000000 1.68888476000000 103.00000000000000 -535.34138990278700
1.77386935000000 1.68888476000000 103.00000000000000 -535.34054574431298
1.78140704000000 1.68888476000000 103.00000000000000 -535.33971649864395
1.78894472000000 1.68888476000000 103.00000000000000 -535.33890211422397
1.79648241000000 1.68888476000000 103.00000000000000 -535.33810252553997
1.81155779000000 1.68888476000000 103.00000000000000 -535.33654747945400
1.81909548000000 1.68888476000000 103.00000000000000 -535.33579187779503
1.82663317000000 1.68888476000000 103.00000000000000 -535.33505078781195
1.84170854000000 1.68888476000000 103.00000000000000 -535.33361181973805
1.84924623000000 1.68888476000000 103.00000000000000 -535.33291376440604
1.85678392000000 1.68888476000000 103.00000000000000 -535.33222987518002
1.86432161000000 1.68888476000000 103.00000000000000 -535.33156005257695
1.87185930000000 1.68888476000000 103.00000000000000 -535.33090420224403
1.87939698000000 1.68888476000000 103.00000000000000 -535.33026221840316
1.88693467000000 1.68888476000000 103.00000000000000 -535.32963399803498
1.90201005000000 1.68888476000000 103.00000000000000 -535.32841840816093
1.91708543000000 1.68888476000000 103.00000000000000 -535.32725653756893
1.92462312000000 1.68888476000000 103.00000000000000 -535.32669545502802
1.93216080000000 1.68888476000000 103.00000000000000 -535.32614745033902
1.93969849000000 1.68888476000000 103.00000000000000 -535.32561239348195
1.94723618000000 1.68888476000000 103.00000000000000 -535.32509016498000
1.95477387000000 1.68888476000000 103.00000000000000 -535.32458063837305
1.96231156000000 1.68888476000000 103.00000000000000 -535.32408368032100
1.96984925000000 1.68888476000000 103.00000000000000 -535.32359916489293
1.97738693000000 1.68888476000000 103.00000000000000 -535.32312695929204
1.98492462000000 1.68888476000000 103.00000000000000 -535.32266692832002
0.96446195000000 1.25628141000000 103.00000000000000 -535.26740419199803
0.96446195000000 1.26256281000000 103.00000000000000 -535.27616979763502
0.96446195000000 1.26884422000000 103.00000000000000 -535.28463016533794
0.96446195000000 1.28140704000000 103.00000000000000 -535.30067259578800
0.96446195000000 1.28768844000000 103.00000000000000 -535.30827261784600
0.96446195000000 1.29396985000000 103.00000000000000 -535.31560336573398
0.96446195000000 1.30025126000000 103.00000000000000 -535.32267311728299
0.96446195000000 1.31909548000000 103.00000000000000 -535.34239528625596
0.96446195000000 1.32537688000000 103.00000000000000 -535.34849871873496
0.96446195000000 1.33793970000000 103.00000000000000 -535.36004234936695
0.96446195000000 1.35050251000000 103.00000000000000 -535.37074610308696
0.96446195000000 1.36306533000000 103.00000000000000 -535.38066048026303
0.96446195000000 1.36934673000000 103.00000000000000 -535.38533656921595
0.96446195000000 1.37562814000000 103.00000000000000 -535.38983286207497
0.96446195000000 1.38190955000000 103.00000000000000 -535.39415482529898
0.96446195000000 1.38819095000000 103.00000000000000 -535.39830775731002
0.96446195000000 1.39447236000000 103.00000000000000 -535.40229681472795
0.96446195000000 1.40075377000000 103.00000000000000 -535.40612697698100
0.96446195000000 1.40703518000000 103.00000000000000 -535.40980307344000
0.96446195000000 1.41331658000000 103.00000000000000 -535.41332978334299
0.96446195000000 1.42587940000000 103.00000000000000 -535.41995310412301
0.96446195000000 1.43216080000000 103.00000000000000 -535.42305837856202
0.96446195000000 1.43844221000000 103.00000000000000 -535.42603163641900
0.96446195000000 1.44472362000000 103.00000000000000 -535.42887688992801
0.96446195000000 1.45728643000000 103.00000000000000 -535.43419884407604
0.96446195000000 1.46356784000000 103.00000000000000 -535.43668299454396
0.96446195000000 1.46984925000000 103.00000000000000 -535.43905403911901
0.96446195000000 1.47613065000000 103.00000000000000 -535.44131542384002
0.96446195000000 1.48241206000000 103.00000000000000 -535.44347050400495
0.96446195000000 1.48869347000000 103.00000000000000 -535.44552252786195
0.96446195000000 1.49497487000000 103.00000000000000 -535.44747494653996
0.96446195000000 1.50125628000000 103.00000000000000 -535.44933019730001
0.96446195000000 1.50753769000000 103.00000000000000 -535.45109157308195
0.96446195000000 1.51381910000000 103.00000000000000 -535.45276195701103
0.96446195000000 1.52010050000000 103.00000000000000 -535.45434414780595
0.96446195000000 1.52638191000000 103.00000000000000 -535.45584086779900
0.96446195000000 1.53266332000000 103.00000000000000 -535.45725475344602
0.96446195000000 1.53894472000000 103.00000000000000 -535.45858836595698
0.96446195000000 1.54522613000000 103.00000000000000 -535.45984419433796
0.96446195000000 1.55150754000000 103.00000000000000 -535.46102465550700
0.96446195000000 1.55778894000000 103.00000000000000 -535.46213209807900
0.96446195000000 1.56407035000000 103.00000000000000 -535.46316879669496
0.96446195000000 1.57035176000000 103.00000000000000 -535.46413697279297
0.96446195000000 1.57663317000000 103.00000000000000 -535.46503876996405
0.96446195000000 1.58291457000000 103.00000000000000 -535.46587628089401
0.96446195000000 1.58919598000000 103.00000000000000 -535.46665153707295
0.96446195000000 1.59547739000000 103.00000000000000 -535.46736650944399
0.96446195000000 1.60175879000000 103.00000000000000 -535.46802311177601
0.96446195000000 1.60804020000000 103.00000000000000 -535.46862321166896
0.96446195000000 1.61432161000000 103.00000000000000 -535.46916861780403
0.96446195000000 1.62060302000000 103.00000000000000 -535.46966108758204
0.96446195000000 1.62688442000000 103.00000000000000 -535.47010233274796
0.96446195000000 1.63316583000000 103.00000000000000 -535.47049401372897
0.96446195000000 1.63944724000000 103.00000000000000 -535.47083774852501
0.96446195000000 1.64572864000000 103.00000000000000 -535.47113510441204
0.96446195000000 1.65201005000000 103.00000000000000 -535.47138761317399
0.96446195000000 1.65829146000000 103.00000000000000 -535.47159675817795
0.96446195000000 1.66457286000000 103.00000000000000 -535.47176397833005
0.96446195000000 1.67085427000000 103.00000000000000 -535.47189068413604
0.96446195000000 1.67713568000000 103.00000000000000 -535.47197823748695
0.96446195000000 1.68341709000000 103.00000000000000 -535.47202796807596
0.96446195000000 1.68969849000000 103.00000000000000 -535.47204116706598
0.96446195000000 1.69597990000000 103.00000000000000 -535.47201908943805
0.96446195000000 1.70226131000000 103.00000000000000 -535.47196295839399
0.96446195000000 1.70854271000000 103.00000000000000 -535.47187396313291
0.96446195000000 1.71482412000000 103.00000000000000 -535.47175325842704
0.96446195000000 1.72110553000000 103.00000000000000 -535.47160197078301
0.96446195000000 1.72738693000000 103.00000000000000 -535.47142119489399
0.96446195000000 1.73366834000000 103.00000000000000 -535.47121199836499
0.96446195000000 1.73994975000000 103.00000000000000 -535.47097541319692
0.96446195000000 1.74623116000000 103.00000000000000 -535.47071244984102
0.96446195000000 1.75251256000000 103.00000000000000 -535.47042409137305
0.96446195000000 1.75879397000000 103.00000000000000 -535.47011129207101
0.96446195000000 1.76507538000000 103.00000000000000 -535.46977497923501
0.96446195000000 1.77135678000000 103.00000000000000 -535.46941606191501
0.96446195000000 1.77763819000000 103.00000000000000 -535.46903541765903
0.96446195000000 1.78391960000000 103.00000000000000 -535.46863390532599
0.96446195000000 1.79020101000000 103.00000000000000 -535.46821235826303
0.96446195000000 1.79648241000000 103.00000000000000 -535.46777158890200
0.96446195000000 1.80276382000000 103.00000000000000 -535.46731238735299
0.96446195000000 1.80904523000000 103.00000000000000 -535.46683552201796
0.96446195000000 1.81532663000000 103.00000000000000 -535.46634174683095
0.96446195000000 1.82160804000000 103.00000000000000 -535.46583178396304
0.96446195000000 1.82788945000000 103.00000000000000 -535.46530634602095
0.96446195000000 1.83417085000000 103.00000000000000 -535.46476612640095
0.96446195000000 1.84045226000000 103.00000000000000 -535.46421179494098
0.96446195000000 1.85301508000000 103.00000000000000 -535.46306339780995
0.96446195000000 1.85929648000000 103.00000000000000 -535.46247059227903
0.96446195000000 1.86557789000000 103.00000000000000 -535.46186618943295
0.96446195000000 1.87185930000000 103.00000000000000 -535.46125077980105
0.96446195000000 1.87814070000000 103.00000000000000 -535.46062493741692
0.96446195000000 1.88442211000000 103.00000000000000 -535.45998921513399
0.96446195000000 1.89070352000000 103.00000000000000 -535.45934415915292
0.96446195000000 1.89698492000000 103.00000000000000 -535.45869029361700
0.96446195000000 1.90326633000000 103.00000000000000 -535.45802813466605
0.96446195000000 1.91582915000000 103.00000000000000 -535.45668092006497
0.96446195000000 1.94095477000000 103.00000000000000 -535.45390808286697
0.96446195000000 1.94723618000000 103.00000000000000 -535.45320113912317
0.96446195000000 1.95351759000000 103.00000000000000 -535.45248954538795
0.96446195000000 1.95979899000000 103.00000000000000 -535.45177370472197
0.96446195000000 1.96608040000000 103.00000000000000 -535.45105400810701
0.96446195000000 1.97236181000000 103.00000000000000 -535.45033083522605
0.96446195000000 1.97864322000000 103.00000000000000 -535.44960455735600
0.96446195000000 1.98492462000000 103.00000000000000 -535.44887553647698
0.96446195000000 2.00376884000000 103.00000000000000 -535.44667545978098
0.96446195000000 2.01005025000000 103.00000000000000 -535.44593886839516
0.96446195000000 2.02889447000000 103.00000000000000 -535.44372378831997
0.96446195000000 2.03517588000000 103.00000000000000 -535.44298464472695
0.96446195000000 2.04773869000000 103.00000000000000 -535.44150687811998
0.96446195000000 2.05402010000000 103.00000000000000 -535.44076878887097
0.96446195000000 2.07286432000000 103.00000000000000 -535.43856074826499
0.96446195000000 2.08542714000000 103.00000000000000 -535.43709631147999
0.96446195000000 2.09798995000000 103.00000000000000 -535.43564005509802
0.96446195000000 2.10427136000000 103.00000000000000 -535.43491552537898
0.96446195000000 2.11055276000000 103.00000000000000 -535.43419366557100
0.96446195000000 2.19849246000000 103.00000000000000 -535.42446667761101
0.96446195000000 1.68888476000000  44.22110553000000 -535.32754208911194
0.96446195000000 1.68888476000000  45.62814070000000 -535.33737526822893
0.96446195000000 1.68888476000000  46.33165829000000 -535.34201261737599
0.96446195000000 1.68888476000000  47.03517588000000 -535.34647660714700
0.96446195000000 1.68888476000000  47.73869347000000 -535.35077628174599
0.96446195000000 1.68888476000000  48.44221106000000 -535.35492025022597
0.96446195000000 1.68888476000000  49.14572864000000 -535.35891667817691
0.96446195000000 1.68888476000000  49.84924623000000 -535.36277330073005
0.96446195000000 1.68888476000000  50.55276382000000 -535.36649743254600
0.96446195000000 1.68888476000000  51.25628141000000 -535.37009597319002
0.96446195000000 1.68888476000000  54.77386935000000 -535.38641875127996
0.96446195000000 1.68888476000000  55.47738693000000 -535.38938696571097
0.96446195000000 1.68888476000000  56.18090452000000 -535.39226734681495
0.96446195000000 1.68888476000000  56.88442211000000 -535.39506396216802
0.96446195000000 1.68888476000000  57.58793970000000 -535.39778058403101
0.96446195000000 1.68888476000000  58.29145729000000 -535.40042071824405
0.96446195000000 1.68888476000000  58.99497487000000 -535.40298760977896
0.96446195000000 1.68888476000000  59.69849246000000 -535.40548426538601
0.96446195000000 1.68888476000000  60.40201005000000 -535.40791346391200
0.96446195000000 1.68888476000000  61.10552764000000 -535.41027777138891
0.96446195000000 1.68888476000000  62.51256281000000 -535.41482099459495
0.96446195000000 1.68888476000000  63.91959799000000 -535.41913071815998
0.96446195000000 1.68888476000000  64.62311558000000 -535.42120255137604
0.96446195000000 1.68888476000000  65.32663316999999 -535.42322115745503
0.96446195000000 1.68888476000000  66.03015075000000 -535.42518797452499
0.96446195000000 1.68888476000000  66.73366833999999 -535.42710431814101
0.96446195000000 1.68888476000000  67.43718593000000 -535.42897139871400
0.96446195000000 1.68888476000000  68.14070352000000 -535.43079032884202
0.96446195000000 1.68888476000000  68.84422111000001 -535.43256212781000
0.96446195000000 1.68888476000000  69.54773869000000 -535.43428773426297
0.96446195000000 1.68888476000000  70.25125628000001 -535.43596801204001
0.96446195000000 1.68888476000000  70.95477387000000 -535.43760375430804
0.96446195000000 1.68888476000000  71.65829146000000 -535.43919569226091
0.96446195000000 1.68888476000000  72.36180905000001 -535.44074450198491
0.96446195000000 1.68888476000000  73.06532663000000 -535.44225080905699
0.96446195000000 1.68888476000000  73.76884422000001 -535.44371518746402
0.96446195000000 1.68888476000000  74.47236181000000 -535.44513817777397
0.96446195000000 1.68888476000000  75.17587940000000 -535.44652027554196
0.96446195000000 1.68888476000000  75.87939698000000 -535.44786195054701
0.96446195000000 1.68888476000000  76.58291457000000 -535.44916363660195
0.96446195000000 1.68888476000000  77.28643216000000 -535.45042574017998
0.96446195000000 1.68888476000000  77.98994974999999 -535.45164865217805
0.96446195000000 1.68888476000000  78.69346734000000 -535.45283273715700
0.96446195000000 1.68888476000000  79.39698491999999 -535.45397834055404
0.96446195000000 1.68888476000000  80.10050251000000 -535.45508579621196
0.96446195000000 1.68888476000000  80.80402010000000 -535.45615541925702
0.96446195000000 1.68888476000000  81.50753769000001 -535.45718751969798
0.96446195000000 1.68888476000000  82.21105528000000 -535.45818239169000
0.96446195000000 1.68888476000000  82.91457286000001 -535.45914032201199
0.96446195000000 1.68888476000000  83.61809045000000 -535.46006159306398
0.96446195000000 1.68888476000000  84.32160804000000 -535.46094648097903
0.96446195000000 1.68888476000000  85.02512563000001 -535.46179525131299
0.96446195000000 1.68888476000000  85.72864322000000 -535.46260817230097
0.96446195000000 1.68888476000000  86.43216080000001 -535.46338550578105
0.96446195000000 1.68888476000000  87.13567839000000 -535.46412751408900
0.96446195000000 1.68888476000000  87.83919598000000 -535.46483445055003
0.96446195000000 1.68888476000000  88.54271357000000 -535.46550657912496
0.96446195000000 1.68888476000000  89.24623115999999 -535.46614415131103
0.96446195000000 1.68888476000000  89.94974874000000 -535.46674742331595
0.96446195000000 1.68888476000000  90.65326632999999 -535.46731665010998
0.96446195000000 1.68888476000000  91.35678392000000 -535.46785209211100
0.96446195000000 1.68888476000000  92.06030151000000 -535.46835400360396
0.96446195000000 1.68888476000000  92.76381910000001 -535.46882263955399
0.96446195000000 1.68888476000000  93.46733668000000 -535.46925826134998
0.96446195000000 1.68888476000000  94.17085427000001 -535.46966112837197
0.96446195000000 1.68888476000000  94.87437186000000 -535.47003150118996
0.96446195000000 1.68888476000000  95.57788945000000 -535.47036964066797
0.96446195000000 1.68888476000000  96.28140704000000 -535.47067581156603
0.96446195000000 1.68888476000000  96.98492462000000 -535.47095028049705
0.96446195000000 1.68888476000000  97.68844221000001 -535.47119331214492
0.96446195000000 1.68888476000000  98.39195980000000 -535.47140517670300
0.96446195000000 1.68888476000000  99.09547739000000 -535.47158614561101
0.96446195000000 1.68888476000000  99.79899497000000 -535.47173648857802
0.96446195000000 1.68888476000000 100.50251256000000 -535.47185648158097
0.96446195000000 1.68888476000000 101.20603015000000 -535.47194639890097
0.96446195000000 1.68888476000000 101.90954773999999 -535.47200651807498
0.96446195000000 1.68888476000000 102.61306533000000 -535.47203712059797
0.96446195000000 1.68888476000000 103.31658290999999 -535.47203848665197
0.96446195000000 1.68888476000000 104.02010050000000 -535.47201089808505
0.96446195000000 1.68888476000000 104.72361809000000 -535.47195464308095
0.96446195000000 1.68888476000000 105.42713568000001 -535.47187000669203
0.96446195000000 1.68888476000000 106.13065327000000 -535.47175727699403
0.96446195000000 1.68888476000000 106.83417085000001 -535.47161674689096
0.96446195000000 1.68888476000000 107.53768844000000 -535.47144870824798
0.96446195000000 1.68888476000000 108.24120603000000 -535.47125345776999
0.96446195000000 1.68888476000000 108.94472362000000 -535.47103128935498
0.96446195000000 1.68888476000000 109.64824120999999 -535.47078250584900
0.96446195000000 1.68888476000000 110.35175879000001 -535.47050740583495
0.96446195000000 1.68888476000000 111.05527638000000 -535.47020629703002
0.96446195000000 1.68888476000000 111.75879397000000 -535.46987948081005
0.96446195000000 1.68888476000000 112.46231156000000 -535.46952726951599
0.96446195000000 1.68888476000000 113.16582914999999 -535.46914997236297
0.96446195000000 1.68888476000000 113.86934673000000 -535.46874790562003
0.96446195000000 1.68888476000000 114.57286431999999 -535.46832138391005
0.96446195000000 1.68888476000000 118.79396985000000 -535.46526685970400
0.96446195000000 1.68888476000000 119.49748744000000 -535.46467829954497
0.96446195000000 1.68888476000000 120.20100503000000 -535.46406794131497
0.96446195000000 1.68888476000000 120.90452261000000 -535.46343613170200
0.96446195000000 1.68888476000000 121.60804020000000 -535.46278322694400
0.96446195000000 1.68888476000000 122.31155778999999 -535.46210958407698
0.96446195000000 1.68888476000000 123.01507538000000 -535.46141556652697
0.96446195000000 1.68888476000000 123.71859296000000 -535.46070154472397
0.96446195000000 1.68888476000000 124.42211055000000 -535.45996789381604
0.96446195000000 1.68888476000000 125.12562814000000 -535.45921499179997
0.96446195000000 1.68888476000000 125.82914572999999 -535.45844322857795
0.96446195000000 1.68888476000000 126.53266332000000 -535.45765299398897
0.96446195000000 1.68888476000000 127.23618089999999 -535.45684468967602
0.96446195000000 1.68888476000000 127.93969849000000 -535.45601872304701
0.96446195000000 1.68888476000000 128.64321608000000 -535.45517550638397
0.96446195000000 1.68888476000000 129.34673366999999 -535.45431545886095
0.96446195000000 1.68888476000000 130.05025126000001 -535.45343901576200
0.96446195000000 1.68888476000000 130.75376883999999 -535.45254660839100
0.96446195000000 1.68888476000000 131.45728643000001 -535.45163868666498
0.96446195000000 1.68888476000000 132.16080402000000 -535.45071570383902
0.96446195000000 1.68888476000000 132.86432160999999 -535.44977812885804
0.96446195000000 1.68888476000000 133.56783920000001 -535.44882642963205
0.96446195000000 1.68888476000000 134.27135677999999 -535.44786109351196
0.96446195000000 1.68888476000000 134.97487437000001 -535.44688261729198
0.96446195000000 1.68888476000000 135.67839196000000 -535.44589150530396
0.96446195000000 1.68888476000000 136.38190954999999 -535.44488827546400
0.96446195000000 1.68888476000000 137.08542714000001 -535.44387345703797
0.96446195000000 1.68888476000000 137.78894471999999 -535.44284759392804
0.96446195000000 1.68888476000000 138.49246231000001 -535.44181124026295
0.96446195000000 1.68888476000000 139.19597990000000 -535.44076496490004
0.96446195000000 1.68888476000000 139.89949748999999 -535.43970935154891
0.96446195000000 1.68888476000000 140.60301508000001 -535.43864499850599
0.96446195000000 1.68888476000000 141.30653265999999 -535.43757251652096
0.96446195000000 1.68888476000000 142.01005025000001 -535.43649253777801
0.96446195000000 1.68888476000000 142.71356784000000 -535.43540570543405
0.96446195000000 1.68888476000000 143.41708542999999 -535.43431268086999
0.96446195000000 1.68888476000000 144.12060302000000 -535.43321414713603
0.96446195000000 1.68888476000000 144.82412059999999 -535.43211080193100
0.96446195000000 1.68888476000000 145.52763819000000 -535.43100336307100
0.96446195000000 1.68888476000000 146.23115577999999 -535.42989256911005
0.96446195000000 1.68888476000000 146.93467337000001 -535.42877917665999
0.96446195000000 1.68888476000000 147.63819094999999 -535.42766396693503
0.96446195000000 1.68888476000000 148.34170854000001 -535.42654774001301
0.96446195000000 1.68888476000000 149.04522613000000 -535.42543132036405
0.96446195000000 1.68888476000000 149.74874371999999 -535.42431555441203
0.96446195000000 1.68888476000000 150.45226131000001 -535.42320131435599
0.96446195000000 1.68888476000000 151.15577888999999 -535.42208949422798
0.96446195000000 1.68888476000000 151.85929648000001 -535.42098101529996
0.96446195000000 1.68888476000000 152.56281407000000 -535.41987682466004
0.96446195000000 1.68888476000000 153.26633165999999 -535.41877789246303
0.96446195000000 1.68888476000000 156.78391959999999 -535.41339804336803
0.96446195000000 1.68888476000000 157.48743719000001 -535.41235259810196
0.96446195000000 1.68888476000000 158.19095476999999 -535.41131997589116
0.96446195000000 1.68888476000000 158.89447236000001 -535.41030136529196
0.96446195000000 1.68888476000000 159.59798995000000 -535.40929798260004
0.96446195000000 1.68888476000000 160.30150753999999 -535.40831106388316
0.96446195000000 1.68888476000000 161.00502513000001 -535.40734187359101
0.96446195000000 1.68888476000000 161.70854270999999 -535.40639169628298
0.96446195000000 1.68888476000000 162.41206030000001 -535.40546183673916
0.96446195000000 1.68888476000000 163.11557789000000 -535.40455362135799
0.96446195000000 1.68888476000000 163.81909547999999 -535.40366838652403
0.96446195000000 1.68888476000000 164.52261307000001 -535.40280748147597
0.96446195000000 1.68888476000000 165.22613064999999 -535.40197227131398
0.96446195000000 1.68888476000000 165.92964824000001 -535.40116411896497
0.96446195000000 1.68888476000000 166.63316583000000 -535.40038439234399
0.96446195000000 1.68888476000000 167.33668342000001 -535.39963445489605
0.96446195000000 1.68888476000000 168.04020101000000 -535.39891565913899
0.96446195000000 1.68888476000000 168.74371858999999 -535.39822934487097
0.96446195000000 1.68888476000000 169.44723618000000 -535.39757683062999
0.96446195000000 1.68888476000000 170.15075376999999 -535.39695940563297
0.96446195000000 1.68888476000000 171.55778893999999 -535.39583481140505
0.96446195000000 1.68888476000000 172.26130653000001 -535.39533002139297
0.96446195000000 1.68888476000000 172.96482412000000 -535.39486506739502
0.96446195000000 1.68888476000000 173.66834170999999 -535.39444099694799
0.96446195000000 1.68888476000000 174.37185930000001 -535.39405878094396
0.96446195000000 1.68888476000000 175.07537687999999 -535.39371931506196
0.96446195000000 1.68888476000000 175.77889447000001 -535.39342340718599
0.96446195000000 1.68888476000000 176.48241206000000 -535.39317177168891
0.96446195000000 1.68888476000000 177.18592964999999 -535.39296502817001
0.96446195000000 1.68888476000000 177.88944724000001 -535.39280368799291
0.96446195000000 1.68888476000000 178.59296481999999 -535.39268815194600
0.96446195000000 1.68888476000000 179.29648241000001 -535.39261871329995
end