structural
morse    2
rOHe    0   0   0    0          0.96446195
rOCle   0   0   0    0          1.68888476
alphae  0   0   0    0          103.000000
am1     0   0   0    0          2.000000000
am2     0   0   0    0          2.000000000
end

linear
f    0   0   0    1     0.0000000
f    0   0   1    1     0.0000000
f    0   0   2    1     0.0000000
f    0   0   3    1     0.0000000
f    0   0   4    1     0.0000000
f    0   0   5    1     0.0000000
f    0   0   6    1     0.0000000
f    0   0   7    1     0.0000000
f    0   0   8    1     0.0000000
f    0   1   0    1     0.0000000
f    0   2   0    1     0.0000000
f    0   3   0    1     0.0000000
f    0   4   0    1     0.0000000
f    0   5   0    1     0.0000000
f    0   6   0    1     0.0000000
f    0   7   0    1     0.0000000
f    0   8   0    1     0.0000000
f    1   0   0    1     0.0000000
f    2   0   0    1     0.0000000
f    3   0   0    1     0.0000000
f    4   0   0    1     0.0000000
f    5   0   0    1     0.0000000
f    6   0   0    1     0.0000000
f    7   0   0    1     0.0000000
f    8   0   0    1     0.0000000
f    0   1   1    1     0.0000000
f    0   1   2    1     0.0000000
f    0   1   3    1     0.0000000
f    0   1   4    1     0.0000000
f    0   1   5    1     0.0000000
f    0   1   6    1     0.0000000
f    0   1   7    1     0.0000000
f    0   2   1    1     0.0000000
f    0   2   2    1     0.0000000
f    0   2   3    1     0.0000000
f    0   2   4    1     0.0000000
f    0   2   5    1     0.0000000
f    0   2   6    1     0.0000000
f    0   3   1    1     0.0000000
f    0   3   2    1     0.0000000
f    0   3   3    1     0.0000000
f    0   3   4    1     0.0000000
f    0   3   5    1     0.0000000
f    0   4   1    1     0.0000000
f    0   4   2    1     0.0000000
f    0   4   3    1     0.0000000
f    0   4   4    1     0.0000000
f    0   5   1    1     0.0000000
f    0   5   2    1     0.0000000
f    0   5   3    1     0.0000000
f    0   6   1    1     0.0000000
f    0   6   2    1     0.0000000
f    0   7   1    1     0.0000000
f    1   0   1    1     0.0000000
f    1   0   2    1     0.0000000
f    1   0   3    1     0.0000000
f    1   0   4    1     0.0000000
f    1   0   5    1     0.0000000
f    1   0   6    1     0.0000000
f    1   0   7    1     0.0000000
f    1   1   0    1     0.0000000
f    1   2   0    1     0.0000000
f    1   3   0    1     0.0000000
f    1   4   0    1     0.0000000
f    1   5   0    1     0.0000000
f    1   6   0    1     0.0000000
f    1   7   0    1     0.0000000
f    2   0   1    1     0.0000000
f    2   0   2    1     0.0000000
f    2   0   3    1     0.0000000
f    2   0   4    1     0.0000000
f    2   0   5    1     0.0000000
f    2   0   6    1     0.0000000
f    2   1   0    1     0.0000000
f    2   2   0    1     0.0000000
f    2   3   0    1     0.0000000
f    2   4   0    1     0.0000000
f    2   5   0    1     0.0000000
f    2   6   0    1     0.0000000
f    3   0   1    1     0.0000000
f    3   0   2    1     0.0000000
f    3   0   3    1     0.0000000
f    3   0   4    1     0.0000000
f    3   0   5    1     0.0000000
f    3   1   0    1     0.0000000
f    3   2   0    1     0.0000000
f    3   3   0    1     0.0000000
f    3   4   0    1     0.0000000
f    3   5   0    1     0.0000000
f    4   0   1    1     0.0000000
f    4   0   2    1     0.0000000
f    4   0   3    1     0.0000000
f    4   0   4    1     0.0000000
f    4   1   0    1     0.0000000
f    4   2   0    1     0.0000000
f    4   3   0    1     0.0000000
f    4   4   0    1     0.0000000
f    5   0   1    1     0.0000000
f    5   0   2    1     0.0000000
f    5   0   3    1     0.0000000
f    5   1   0    1     0.0000000
f    5   2   0    1     0.0000000
f    5   3   0    1     0.0000000
f    6   0   1    1     0.0000000
f    6   0   2    1     0.0000000
f    6   1   0    1     0.0000000
f    6   2   0    1     0.0000000
f    7   0   1    1     0.0000000
f    7   1   0    1     0.0000000
f    1   1   1    1     0.0000000
f    1   1   2    1     0.0000000
f    1   1   3    1     0.0000000
f    1   1   4    1     0.0000000
f    1   1   5    1     0.0000000
f    1   1   6    1     0.0000000
f    1   2   1    1     0.0000000
f    1   2   2    1     0.0000000
f    1   2   3    1     0.0000000
f    1   2   4    1     0.0000000
f    1   2   5    1     0.0000000
f    1   3   1    1     0.0000000
f    1   3   2    1     0.0000000
f    1   3   3    1     0.0000000
f    1   3   4    1     0.0000000
f    1   4   1    1     0.0000000
f    1   4   2    1     0.0000000
f    1   4   3    1     0.0000000
f    1   5   1    1     0.0000000
f    1   5   2    1     0.0000000
f    1   6   1    1     0.0000000
f    2   1   1    1     0.0000000
f    2   1   2    1     0.0000000
f    2   1   3    1     0.0000000
f    2   1   4    1     0.0000000
f    2   1   5    1     0.0000000
f    2   2   1    1     0.0000000
f    2   2   2    1     0.0000000
f    2   2   3    1     0.0000000
f    2   2   4    1     0.0000000
f    2   3   1    1     0.0000000
f    2   3   2    1     0.0000000
f    2   3   3    1     0.0000000
f    2   4   1    1     0.0000000
f    2   4   2    1     0.0000000
f    2   5   1    1     0.0000000
f    3   1   1    1     0.0000000
f    3   1   2    1     0.0000000
f    3   1   3    1     0.0000000
f    3   1   4    1     0.0000000
f    3   2   1    1     0.0000000
f    3   2   2    1     0.0000000
f    3   2   3    1     0.0000000
f    3   3   1    1     0.0000000
f    3   3   2    1     0.0000000
f    3   4   1    1     0.0000000
f    4   1   1    1     0.0000000
f    4   1   2    1     0.0000000
f    4   1   3    1     0.0000000
f    4   2   1    1     0.0000000
f    4   2   2    1     0.0000000
f    4   3   1    1     0.0000000
f    5   1   1    1     0.0000000
f    5   1   2    1     0.0000000
f    5   2   1    1     0.0000000
f    6   1   1    1     0.0000000
end

grid
0.96446195 1.68888476 103.00000000 -535.789142464675
0.95946195 1.68888476 103.00000000 -535.789262200604
0.96946195 1.68888476 103.00000000 -535.788975928652
0.95446195 1.68888476 103.00000000 -535.789333497623
0.97446195 1.68888476 103.00000000 -535.788764181179
0.94946195 1.68888476 103.00000000 -535.789354664626
0.97946195 1.68888476 103.00000000 -535.788508762044
0.94446195 1.68888476 103.00000000 -535.789323956214
0.98446195 1.68888476 103.00000000 -535.788211163920
0.93946195 1.68888476 103.00000000 -535.789239572627
0.98946195 1.68888476 103.00000000 -535.787872833264
0.93446195 1.68888476 103.00000000 -535.789099655465
0.99446195 1.68888476 103.00000000 -535.787495172476
0.92946195 1.68888476 103.00000000 -535.788902287223
0.99946195 1.68888476 103.00000000 -535.787079541394
0.92446195 1.68888476 103.00000000 -535.788645489260
1.00446195 1.68888476 103.00000000 -535.786627257575
0.91946195 1.68888476 103.00000000 -535.788327219665
1.00946195 1.68888476 103.00000000 -535.786139598871
0.91446195 1.68888476 103.00000000 -535.787945370771
1.01446195 1.68888476 103.00000000 -535.785617804086
0.90946195 1.68888476 103.00000000 -535.787497766309
1.01946195 1.68888476 103.00000000 -535.785063073740
0.90446195 1.68888476 103.00000000 -535.786982161574
1.02446195 1.68888476 103.00000000 -535.784476572265
0.89946195 1.68888476 103.00000000 -535.786396237749
1.02946195 1.68888476 103.00000000 -535.783859428685
0.89446195 1.68888476 103.00000000 -535.785737602073
1.03446195 1.68888476 103.00000000 -535.783212736930
0.88946195 1.68888476 103.00000000 -535.785003783571
1.03946195 1.68888476 103.00000000 -535.782537558511
0.88446195 1.68888476 103.00000000 -535.784192231907
1.04446195 1.68888476 103.00000000 -535.781834921749
0.87946195 1.68888476 103.00000000 -535.783300312536
1.04946195 1.68888476 103.00000000 -535.781105824595
0.87446195 1.68888476 103.00000000 -535.782325306236
1.05446195 1.68888476 103.00000000 -535.780351233818
0.86946195 1.68888476 103.00000000 -535.781264404119
1.05946195 1.68888476 103.00000000 -535.779572087531
0.86446195 1.68888476 103.00000000 -535.780114705889
1.06446195 1.68888476 103.00000000 -535.778769294371
0.85446195 1.68888476 103.00000000 -535.777536839124
1.07446195 1.68888476 103.00000000 -535.777096268094
0.84446195 1.68888476 103.00000000 -535.774566536662
1.08446195 1.68888476 103.00000000 -535.775338889914
1.08946195 1.68888476 103.00000000 -535.774430562406
0.83946195 1.68888476 103.00000000 -535.772925897348
1.11446195 1.68888476 103.00000000 -535.769622076022
0.81446195 1.68888476 103.00000000 -535.763021984856
0.76446195 1.68888476 103.00000000 -535.733035487252
1.26446195 1.68888476 103.00000000 -535.734950988824
0.66446195 1.68888476 103.00000000 -535.612041838671
1.36446195 1.68888476 103.00000000 -535.709600018973
1.46446195 1.68888476 103.00000000 -535.683857096750
1.56446195 1.68888476 103.00000000 -535.665329914036
1.66446195 1.68888476 103.00000000 -535.651669156044
1.76446195 1.68888476 103.00000000 -535.641058219785
1.86446195 1.68888476 103.00000000 -535.633037843789
1.96446195 1.68888476 103.00000000 -535.626817468610
0.96446195 1.68388476 103.00000000 -535.789148815853
0.96446195 1.69388476 103.00000000 -535.789114555833
0.96446195 1.67888476 103.00000000 -535.789132949359
0.96446195 1.69888476 103.00000000 -535.789065733101
0.96446195 1.67388476 103.00000000 -535.789094190362
0.96446195 1.70388476 103.00000000 -535.788996625529
0.96446195 1.66888476 103.00000000 -535.789031846801
0.96446195 1.70888476 103.00000000 -535.788907847544
0.96446195 1.66388476 103.00000000 -535.788945209784
0.96446195 1.71388476 103.00000000 -535.788799998820
0.96446195 1.65888476 103.00000000 -535.788833553266
0.96446195 1.71888476 103.00000000 -535.788673665551
0.96446195 1.65388476 103.00000000 -535.788696133358
0.96446195 1.72388476 103.00000000 -535.788529420434
0.96446195 1.64888476 103.00000000 -535.788532187798
0.96446195 1.72888476 103.00000000 -535.788367823871
0.96446195 1.64388476 103.00000000 -535.788340935313
0.96446195 1.73388476 103.00000000 -535.788189420533
0.96446195 1.63888476 103.00000000 -535.788121574579
0.96446195 1.73888476 103.00000000 -535.787994745523
0.96446195 1.63388476 103.00000000 -535.787873284810
0.96446195 1.74388476 103.00000000 -535.787784321329
0.96446195 1.62888476 103.00000000 -535.787595223549
0.96446195 1.74888476 103.00000000 -535.787558656440
0.96446195 1.62388476 103.00000000 -535.787286526755
0.96446195 1.75388476 103.00000000 -535.787318250020
0.96446195 1.61888476 103.00000000 -535.786946309575
0.96446195 1.75888476 103.00000000 -535.787063589596
0.96446195 1.61388476 103.00000000 -535.786573662058
0.96446195 1.76388476 103.00000000 -535.786795150349
0.96446195 1.60888476 103.00000000 -535.786167651492
0.96446195 1.76888476 103.00000000 -535.786513398138
0.96446195 1.60388476 103.00000000 -535.785727319613
0.96446195 1.77388476 103.00000000 -535.786218787350
0.96446195 1.59888476 103.00000000 -535.785251682903
0.96446195 1.77888476 103.00000000 -535.785911762237
0.96446195 1.59388476 103.00000000 -535.784739729536
0.96446195 1.78388476 103.00000000 -535.785592757200
0.96446195 1.58888476 103.00000000 -535.784190421143
0.96446195 1.78888476 103.00000000 -535.785262196887
0.96446195 1.57888476 103.00000000 -535.782975431111
0.96446195 1.79888476 103.00000000 -535.784568060549
0.96446195 1.56888476 103.00000000 -535.781597776923
0.96446195 1.80888476 103.00000000 -535.783832560738
0.96446195 1.81388476 103.00000000 -535.783450262658
0.96446195 1.56388476 103.00000000 -535.780845007331
0.96446195 1.83888476 103.00000000 -535.781407844662
0.96446195 1.53888476 103.00000000 -535.776390592819
0.96446195 1.48888476 103.00000000 -535.763413688469
0.96446195 1.98888476 103.00000000 -535.766427953550
0.96446195 1.38888476 103.00000000 -535.713756009998
0.96446195 2.08888476 103.00000000 -535.755803434421
0.96446195 1.28888476 103.00000000 -535.628287075649
0.96446195 2.18888476 103.00000000 -535.745899084228
0.96446195 2.28888476 103.00000000 -535.737220487635
0.96446195 2.38888476 103.00000000 -535.729956861376
0.96446195 2.48888476 103.00000000 -535.724087889630
0.96446195 2.58888476 103.00000000 -535.719472271362
0.96446195 2.68888476 103.00000000 -535.715914952195
0.96446195 1.68888476 104.00000000 -535.789121193999
0.96446195 1.68888476 102.00000000 -535.789102572713
0.96446195 1.68888476 105.00000000 -535.789039610659
0.96446195 1.68888476 101.00000000 -535.789000673955
0.96446195 1.68888476 105.50000000 -535.788976469376
0.96446195 1.68888476 100.50000000 -535.788926209370
0.96446195 1.68888476 106.00000000 -535.788898571591
0.96446195 1.68888476 100.00000000 -535.788835929207
0.96446195 1.68888476 107.00000000 -535.788698938603
0.96446195 1.68888476  98.00000000 -535.788314582426
0.96446195 1.68888476 108.00000000 -535.788441580312
0.96446195 1.68888476  98.00000000 -535.788314582426
0.96446195 1.68888476 110.50000000 -535.787551388688
0.96446195 1.68888476  95.50000000 -535.787294708746
0.96446195 1.68888476  93.00000000 -535.785853969239
0.96446195 1.68888476 115.50000000 -535.784760728564
0.96446195 1.68888476  90.50000000 -535.783980006559
0.96446195 1.68888476 118.00000000 -535.782888810795
0.96446195 1.68888476  88.00000000 -535.781660710153
0.96446195 1.68888476 120.50000000 -535.780718805868
0.96446195 1.68888476  85.50000000 -535.778884169104
0.96446195 1.68888476 123.00000000 -535.778266012503
0.96446195 1.68888476  83.00000000 -535.775638561132
0.96446195 1.68888476 125.50000000 -535.775546305794
0.96446195 1.68888476  80.50000000 -535.771911936387
0.96446195 1.68888476 128.00000000 -535.772576256663
0.96446195 1.68888476  78.00000000 -535.767691834067
0.96446195 1.68888476 133.00000000 -535.765955711383
0.96446195 1.68888476  73.00000000 -535.757714627892
0.96446195 1.68888476 138.00000000 -535.758556296525
0.96446195 1.68888476  68.00000000 -535.745563127830
0.96446195 1.68888476 143.00000000 -535.750551036154
0.96446195 1.68888476  63.00000000 -535.730997284660
0.96446195 1.68888476 148.00000000 -535.742139914798
0.96446195 1.68888476  58.00000000 -535.713573584923
0.96446195 1.68888476 153.00000000 -535.733556302920
0.96446195 1.68888476  53.00000000 -535.692469182285
0.96446195 1.68888476 163.00000000 -535.717118563229
0.96446195 1.68888476  43.00000000 -535.632495156149
0.96446195 1.68888476 173.00000000 -535.705372109285
0.96446195 1.67416187  95.41204544 -535.786941094354
1.03666945 1.72779399 103.00000000 -535.782267899795
1.16230627 1.75150156 103.00000000 -535.758038048758
0.89590574 1.83858284 103.00000000 -535.777838639107
0.96446195 1.92387026 129.27339301 -535.751334746424
0.96446195 1.73755052 150.56836682 -535.733970368580
0.90154427 1.81542520 103.00000000 -535.780536633048
1.34371700 1.65501426 103.00000000 -535.713945909896
0.93413177 1.68888476  95.79554147 -535.787339803338
1.04944394 1.56331514 103.00000000 -535.772398516464
0.96446195 1.81375024 109.08229544 -535.781331500239
1.09427982 1.68888476 115.46498650 -535.769058891362
1.16090462 1.68888476  74.89871955 -535.735766129790
0.75596095 1.68888476 104.86471891 -535.726281171058
0.87029844 1.51309446 103.00000000 -535.763378092215
0.99174301 2.01995593 103.00000000 -535.761934888662
0.84934524 2.04532522 103.00000000 -535.745883414994
0.95028017 1.68888476 110.45128012 -535.787797083694
1.27099499 1.68888476  97.89127045 -535.732639785219
0.96446195 1.77157945  92.63543502 -535.784671027788
0.89985783 1.71434045 103.00000000 -535.786030220953
0.77720665 1.68888476  73.65547073 -535.709896100774
1.10887792 1.88772027 103.00000000 -535.759321693246
0.89015493 2.17700267 103.00000000 -535.741935076181
0.87068148 1.68888476  68.47436053 -535.737030633694
1.01419001 1.68888476 127.52899197 -535.769554015231
0.96105346 1.69171888 103.00000000 -535.789215720188
1.21546648 1.58725847 103.00000000 -535.740902797369
0.89712833 1.73160081 103.00000000 -535.785119540927
1.14018532 1.68888476 117.38406251 -535.758368791737
0.96446195 1.49306374 107.19265715 -535.766354049529
0.96446195 1.63810273 127.41119356 -535.774144045368
1.24206753 1.68888476  97.84864592 -535.739813297552
0.96446195 1.87399011 127.99957324 -535.758026007426
0.96446195 1.75143658  90.97520461 -535.784389877771
1.25333876 1.69060467 103.00000000 -535.737726285852
0.84832028 1.68888476  57.75852674 -535.694046942686
0.96446195 1.59407480 104.25655079 -535.784998069204
0.96446195 1.87532437  81.22337779 -535.771410948820
0.92149994 1.68888476  80.75982510 -535.771271583702
0.91960947 1.40021095 103.00000000 -535.721406599957
0.96136443 1.68888476  68.68396639 -535.747357196619
1.04462798 1.68888476  76.06147023 -535.757947673698
0.96446195 2.00720852 112.44642222 -535.759590303587
0.99137116 1.87475582 103.00000000 -535.776916999750
1.40149156 1.68888476 118.73187847 -535.693620289387
0.96446195 1.72190713 128.19724998 -535.770732282664
1.12181052 1.68888476 107.10575159 -535.767600514688
0.96446195 1.98395521 124.81717548 -535.750750302560
1.06625704 1.93248936 103.00000000 -535.762460424745
1.30378478 1.68888476 123.66263475 -535.713593454987
0.96446195 1.76842914  78.88455280 -535.771961638046
0.87630346 2.17667477 103.00000000 -535.739337233228
0.98715142 1.68888476 133.73877092 -535.763727294021
0.96446195 2.02127510 115.38419726 -535.755929156818
0.96446195 1.90175558 107.76807920 -535.773662680492
0.96446195 1.65114517 119.54832107 -535.782078719398
0.98003474 1.65505842 103.00000000 -535.788047913147
0.95927528 1.68888476 104.23313402 -535.789231733301
1.05784017 1.68888476 130.11882655 -535.760372437546
0.98017984 1.68888476  91.80600057 -535.784381193426
0.88175499 1.66200667 103.00000000 -535.783567177825
1.31360365 1.68748834 103.00000000 -535.722552031442
1.33726915 1.82364627 103.00000000 -535.711302626694
0.96446195 1.96044984 118.46760025 -535.759709510931
1.05510547 1.60900127 103.00000000 -535.777077522113
0.99373301 1.68888476  91.74533809 -535.783456097760
0.96446195 1.74487273  66.10745449 -535.746199512099
0.85908112 1.68888476  84.91264730 -535.767233623045
0.89243821 1.43906689 103.00000000 -535.740791790046
0.96446195 1.91921784  75.92479295 -535.763522925604
1.29168253 1.64034640 103.00000000 -535.726605489701
0.93925365 1.68888476  89.64178613 -535.783240528372
0.96446195 1.41897428 103.39650231 -535.732727034121
1.01828762 1.68888476  80.65574509 -535.768719673675
0.96446195 1.81099665 139.27432164 -535.747287447655
0.96446195 1.54535859 127.99084795 -535.767659477936
0.99192832 1.95035785 103.00000000 -535.769305259046
1.04526772 1.68888476  86.48615373 -535.773020435081
0.98624567 1.56598865 103.00000000 -535.780035653588
1.08296168 1.68888476  71.43276273 -535.743456873782
1.37496066 1.65919313 103.00000000 -535.705991373437
1.07060218 1.64203701 103.00000000 -535.776730510967
0.77040458 1.68888476 110.83738709 -535.735879237159
0.82234158 1.96036056 103.00000000 -535.745304208757
0.95133151 1.68888476 100.76483933 -535.789173092245
0.96446195 1.56415881 135.72437022 -535.760544844380
0.96323292 1.68888476 119.97192245 -535.781237180778
0.97358087 1.79057027 103.00000000 -535.784842430822
0.96446195 2.01457220  94.03011225 -535.765085086438
0.98655498 1.87526678 103.00000000 -535.777181162493
0.94257673 1.68888476 128.21154763 -535.772528182836
0.94312786 1.68888476  60.21479400 -535.720784592261
1.17051702 1.68888476 109.61406540 -535.756220375297
0.90708504 1.59848820 103.00000000 -535.783512863781
0.74324755 1.68888476 116.63261057 -535.710409140057
0.96446195 1.66435704 135.42477181 -535.763343361423
0.96446195 1.43602255 111.09378012 -535.745349379446
1.01708103 1.79460633 103.00000000 -535.781240101612
0.96446195 1.76553577 105.61458057 -535.786182256096
0.87629303 1.54880567 103.00000000 -535.772297174077
1.07181987 1.73895990 103.00000000 -535.776556755242
0.96446195 1.71774280 105.73850634 -535.788357514245
0.96446195 1.70876003  90.57778986 -535.784418279810
0.96446195 1.96429512  88.76247669 -535.769111902443
1.24615516 1.47887231 103.00000000 -535.708107942025
1.26168693 1.76184093 103.00000000 -535.733949526761
0.98565650 1.68888476  75.28340018 -535.761851184441
1.21764227 1.68464960 103.00000000 -535.746450780890
0.85802687 1.68888476  74.81160679 -535.749498181378
0.96446195 1.80212571 151.19169597 -535.726739656676
0.78836259 1.63649111 103.00000000 -535.748518474062
1.25910729 1.68888476 111.83794724 -535.733980455102
0.97616102 1.68888476  73.17028635 -535.757847026310
0.97234093 1.68888476 116.53696289 -535.783727416370
0.96446195 1.65878540  94.30993108 -535.785705564579
1.47244320 1.78280543 103.00000000 -535.680354373753
1.14389702 1.68888476 110.99925152 -535.761556329539
0.84978038 1.68888476  71.46514272 -535.739280502040
0.95155555 1.68888476  96.16238646 -535.787797785110
1.15500283 1.68888476  74.22565509 -535.735818718714
0.93436831 1.84860888 103.00000000 -535.780341821058
0.96446195 1.87528577 117.01102064 -535.769965273861
0.78741541 1.67045084 103.00000000 -535.748739262264
1.19750964 1.88197009 103.00000000 -535.740768920750
1.00243155 1.68888476  72.06204804 -535.754083945401
0.96446195 1.84015446  71.33601122 -535.759952564068
0.96446195 1.92521704 116.05392596 -535.765592137538
0.96446195 1.64823108  85.79394038 -535.776591910760
1.00834763 1.68888476 136.79048148 -535.757361150819
1.28613439 1.68888476 116.43268674 -535.724423134353
0.75445496 1.67440659 103.00000000 -535.725166041191
0.79490875 1.74295811 103.00000000 -535.751356402019
1.01217177 1.90202547 103.00000000 -535.772545888611
0.75139675 1.68888476 130.10548524 -535.703989279009
0.96446195 1.64889995 133.96319689 -535.765728679517
0.96446195 1.81553778  76.27630762 -535.767937251034
0.90327245 1.68888476  93.21789481 -535.783573702233
0.96446195 1.44907326 125.70467247 -535.746357505707
0.76609923 1.68888476 123.05152432 -535.723821111547
0.96446195 1.68357694 122.40671950 -535.779031789482
0.96446195 1.94113494 109.56556498 -535.768546114575
0.99914076 1.68888476 111.03817666 -535.785248582715
0.96446195 1.96693406 102.20408247 -535.769013892517
0.96446195 1.75097014 126.69696377 -535.770721707347
1.01386484 1.68888476 109.90953991 -535.784294204866
0.96446195 1.88330147  85.71283933 -535.774381467389
0.81092505 1.68888476 122.49495375 -535.751376861073
0.98072226 1.68888476 123.00426323 -535.777526139246
1.07126041 1.68888476  79.04691744 -535.759225911768
1.35328503 1.73866495 103.00000000 -535.711864933151
0.99163793 1.92382115 103.00000000 -535.772069389803
0.96446195 2.01734575 110.41286163 -535.759832900698
0.86319475 2.03517698 103.00000000 -535.750920122389
0.96446195 1.58434724 111.17372504 -535.783569233938
0.96979198 1.81382988 103.00000000 -535.783298417930
1.22036426 1.68888476 106.94861218 -535.745307683589
1.10210148 1.68888476 103.83071870 -535.772025242077
0.96446195 1.71806182 125.82622998 -535.773854381497
1.31634851 1.72706363 103.00000000 -535.721511629004
0.96446195 1.66914696  81.23833916 -535.771664495892
0.84501160 1.68888476 116.18265613 -535.770067837510
0.96446195 1.53191823  70.71690410 -535.717995625833
1.01776010 1.98446143 103.00000000 -535.763492287705
1.00005861 1.59769114 103.00000000 -535.782917993937
0.96446195 1.68512231 111.00336134 -535.787390669808
1.12294726 1.83220819 103.00000000 -535.761373186025
1.06897018 1.73809517 103.00000000 -535.777064330885
0.99308416 1.68888476  82.04180776 -535.772959918759
1.11363191 1.68888476  83.18692407 -535.757626941453
1.28804454 1.68888476  94.87090038 -535.727234104899
0.96446195 1.87550132  84.44021172 -535.774044951092
0.82791445 2.09976873 103.00000000 -535.732363132160
1.19656585 1.68888476 117.45753528 -535.745560509790
0.96446195 1.80772559  95.45947712 -535.783780733703
0.96446195 1.83579881  88.82188598 -535.779398653545
0.88301665 1.73513150 103.00000000 -535.782797113536
1.11018672 1.78251754 103.00000000 -535.767404701794
1.41160176 1.69184291 103.00000000 -535.697582120158
0.84541152 1.67663767 103.00000000 -535.774900507957
0.96446195 1.77656005  99.54433475 -535.786220207845
1.42105697 1.68888476  97.58045143 -535.694248362921
1.11616959 1.68888476  95.45653855 -535.767617223833
1.26560411 1.68888476 105.84260583 -535.734392219655
0.74068272 1.59962306 103.00000000 -535.709942201463
1.07119347 1.68888476 103.84416908 -535.777627220761
0.90832772 1.74827032 103.00000000 -535.785706766758
0.96446195 1.57553055 145.13078965 -535.747991040404
0.96446195 1.66779931  80.09511065 -535.769653909220
0.97655834 1.70238104 103.00000000 -535.788544843171
1.08467740 1.68888476 134.40876646 -535.749826397542
0.71200863 1.59726291 103.00000000 -535.679203557879
0.96446195 1.98523692  94.98372717 -535.768102458779
0.96446195 1.90380906 120.82655036 -535.763359315291
1.30085042 1.68888476 107.34764212 -535.725202566180
0.96446195 1.53907888 138.97079834 -535.753562362600
0.88346431 1.68888476 104.93891285 -535.783947496119
0.96446195 1.76228692 107.78603218 -535.785669094740
0.96446195 1.84409723 110.10989770 -535.778085428724
0.96446195 1.97570767  82.67777388 -535.765262980712
0.89698607 1.68888476  63.23285936 -535.726212305429
1.10642725 1.68888476  93.96683367 -535.768787165856
1.39285832 1.77296741 103.00000000 -535.700520824614
0.91719236 1.68888476  99.06721293 -535.787611887577
1.06508114 1.78967098 103.00000000 -535.775044515928
0.96446195 1.53667837 125.85125086 -535.768533452938
0.92498533 1.68888476  83.22461620 -535.775212685892
0.96446195 1.95937939  88.87678292 -535.769603200213
1.49634362 1.59740909 103.00000000 -535.678711365970
0.99184828 1.68888476  77.13997334 -535.765037395058
0.96446195 1.77721965 114.45121314 -535.780926667941
0.84195862 1.68888476 125.96052309 -535.759971260489
0.96446195 1.52314447  96.22526525 -535.768211858650
1.05635938 1.68888476 121.26166144 -535.770790961772
1.10876062 1.68888476  67.62726827 -535.731191314804
0.86880709 1.68888476 105.34634849 -535.781006311151
0.90104912 1.87850592 103.00000000 -535.774805006237
0.96446195 1.99580254  93.49791184 -535.766969557358
0.96446195 1.57887797  90.91720304 -535.774312687194
1.10962220 1.68888476  93.26865167 -535.767762646665
1.46885765 1.66815306 103.00000000 -535.682438001151
1.05355857 1.68888476 129.65675612 -535.761646538274
1.37703132 1.56942207 103.00000000 -535.698426943332
1.13279242 1.68888476 118.32595662 -535.759183093435
1.03620008 1.68888476  91.40826281 -535.778747636582
0.95025529 1.68888476 136.63541985 -535.760913916501
1.25857837 1.68888476 105.59793732 -535.736185460276
1.07581452 1.68888476 115.16657255 -535.772598604741
0.90653562 1.68888476  85.23399102 -535.776306352128
0.82424072 1.83341889 103.00000000 -535.759141537305
0.69264051 1.93752806 103.00000000 -535.636498039477
1.05468918 1.68888476  84.56391326 -535.769465325149
0.77910691 2.01406734 103.00000000 -535.715682272060
0.91527669 2.05700789 103.00000000 -535.757435717963
1.02632760 1.92991572 103.00000000 -535.768232687537
0.95033699 1.84365509 103.00000000 -535.781130646095
1.06759687 1.68888476 106.89301545 -535.777789647110
0.96446195 1.84583643 102.35746992 -535.780943250924
0.96446195 1.71922132 115.51099791 -535.783692082544
0.96446195 2.01738289 111.03005457 -535.759442724757
0.94652754 1.99957264 103.00000000 -535.765301497570
0.96446195 1.86747381  74.55024988 -535.764198102669
1.09417273 1.63504518 103.00000000 -535.772153424722
0.96446195 2.09006776  96.77572905 -535.757151716325
0.84061709 1.68888476 130.08145898 -535.754518882031
0.96446195 2.09515493 108.69267776 -535.752660768410
0.96446195 2.05371038  95.96348081 -535.760992247308
0.99668657 2.13979133 103.00000000 -535.749194921503
1.33814712 1.68888476  84.69093646 -535.706875565651
0.96446195 1.58571683  95.95690419 -535.780263330892
0.89451941 1.99861005 103.00000000 -535.761239638017
0.95323347 1.68888476 126.32874397 -535.774816122498
1.01858333 1.68888476 111.70280573 -535.782971630200
0.96446195 1.50537085 147.47114792 -535.736761900199
1.05213398 1.69766461 103.00000000 -535.780665974220
0.96446195 1.55581521 118.05341857 -535.777262654689
0.96446195 1.45046350 113.82803515 -535.751887661768
0.96446195 1.62171354  69.84907089 -535.739991135883
0.83971918 1.68888476 107.93176679 -535.772415039292
0.96446195 1.82814406  91.90658753 -535.781357391610
1.08631244 1.75749660 103.00000000 -535.773244820961
0.95859978 1.68888476 115.00281405 -535.785239325879
0.96446195 1.68915089  97.67638750 -535.788208045595
1.18270466 1.79555388 103.00000000 -535.751031628570
0.99285205 1.68888476 107.88389634 -535.786935810823
0.81320022 1.70317408 103.00000000 -535.762215655385
1.42626419 1.68888476 112.53908442 -535.691387420846
0.96446195 1.57501813 111.62327636 -535.782446445125
0.93302760 1.68888476 104.19069785 -535.789022282702
0.90941147 1.68888476  97.08813893 -535.786280096118
1.37081013 1.71557573 103.00000000 -535.707948586172
0.96446195 1.49998838  71.97331450 -535.709505686311
0.89673879 1.82481889 103.00000000 -535.779138033614
0.79543332 1.51129336 103.00000000 -535.735453069581
1.27557638 1.66692373 103.00000000 -535.731830232882
0.89838963 1.68888476  99.77478286 -535.785872562661
0.96446195 1.73504416 112.30114430 -535.785024162228
0.96446195 1.70337148  91.83038838 -535.785285275633
0.98607389 1.68888476 112.10828674 -535.785739647754
1.13321381 1.68888476  93.93896335 -535.763358014577
1.02310789 1.68888476  84.27072776 -535.773223076331
0.96446195 1.78279902  88.85462036 -535.782053119685
1.24115296 1.75079548 103.00000000 -535.739491869169
0.96446195 1.48139639 133.06523435 -535.749873301323
0.84387899 1.68888476  88.58263154 -535.767049088096
1.24688122 1.63501494 103.00000000 -535.737648255791
1.19086353 1.47054190 103.00000000 -535.716852034642
1.01998570 1.80494165 103.00000000 -535.780196882846
0.96446195 1.70909926  66.48721528 -535.743857190425
0.91178467 1.66444954 103.00000000 -535.787574332325
0.96446195 1.72955201  89.30447940 -535.783486853385
0.92975068 1.68888476 109.69926678 -535.787676488553
0.96446195 1.79214483  88.95135022 -535.781751385710
0.78901865 1.68888476  91.93915235 -535.745234168964
1.25695861 1.68888476 107.12999681 -535.736274131679
0.96446195 1.72246138  83.05842220 -535.776983137481
1.05025317 1.68888476 129.71048633 -535.762079195904
0.96446195 1.70284956 112.46093851 -535.786262415535
0.85428147 1.69313713 103.00000000 -535.777445755534
1.05183713 1.68888476 128.55996498 -535.763319130448
1.36959764 1.68888476 117.16370761 -535.702847143316
1.11224197 1.68760962 103.00000000 -535.770064202312
1.25323038 1.76308860 103.00000000 -535.735980191939
0.96446195 1.74948984 141.56549860 -535.748815259033
1.10623984 1.74425893 103.00000000 -535.770100121263
0.81212687 1.72333609 103.00000000 -535.761122590197
1.12812877 1.79232834 103.00000000 -535.763188170938
0.97262954 1.68888476  82.51555301 -535.774721063881
1.11443449 1.68888476 142.55700511 -535.731213857987
0.96446195 1.93539607 106.37188797 -535.770816281407
0.78082601 1.68888476  85.21091603 -535.733110698548
0.96446195 1.54260551 141.85860794 -535.750000313459
1.11604825 1.63555700 103.00000000 -535.767898105620
1.05583113 1.68888476 135.40226341 -535.753232578453
0.96446195 1.89970342 120.45549549 -535.764166726621
0.96446195 1.87190234 120.08629351 -535.767396970012
0.95716289 1.68888476 122.10863115 -535.779344600145
0.74665586 1.68888476  84.43759384 -535.705794159589
0.96446195 1.67211211 120.49752607 -535.781112230343
0.84037473 1.81962997 103.00000000 -535.766430784244
0.97929929 2.10052189 103.00000000 -535.754150878222
0.91454990 1.61428226 103.00000000 -535.785544792757
0.96446195 1.85754342  64.41546288 -535.746854847884
1.15747150 1.63982932 103.00000000 -535.759261376530
1.24502184 1.68888476 114.65704994 -535.735858528000
0.96446195 1.81901346 119.74512210 -535.772865864749
0.83557492 1.43670057 103.00000000 -535.726541879829
0.96446195 1.77397734 115.62879986 -535.780278732160
0.96446195 1.90526423  88.55669889 -535.774219055859
0.85297880 1.68888476 122.30948364 -535.767202150470
1.10668410 1.68888476  89.56651020 -535.765670307143
0.86270200 1.68888476 129.57280828 -535.761463358690
1.27074519 1.66248212 103.00000000 -535.732920185201
0.80541931 1.68888476 135.39429890 -535.732769788800
0.96446195 1.63361534 129.76092581 -535.771299863128
0.91901005 1.72716987 103.00000000 -535.787514132683
1.06976553 1.68888476  96.10224447 -535.776462447393
0.96446195 1.55266882 129.84877701 -535.766564500726
0.79209693 1.69829825 103.00000000 -535.751325541695
0.87327577 1.50607963 103.00000000 -535.762142315260
0.96446195 1.71945240  84.99531466 -535.779247227736
0.93338078 1.68888476  87.01441628 -535.780397062348
0.79534612 1.68888476 101.09205818 -535.753139288451
1.22584748 1.68888476 126.67200186 -535.729451459809
0.86391990 1.68888476  90.43649549 -535.774472012846
0.93187938 1.59750199 103.00000000 -535.785076766728
0.96446195 1.81686916 108.26920419 -535.781462871193
0.80272138 1.70355790 103.00000000 -535.757057003845
0.98889606 1.68888476 134.35930318 -535.762705180312
1.23489172 1.68888476 111.83335440 -535.739957803283
0.96446195 1.80131760 107.81677413 -535.782927065255
1.24254906 1.68888476  96.71156401 -535.739328960906
1.40370846 1.67293627 103.00000000 -535.699102459220
1.35337202 1.68888476  85.61275374 -535.703922286491
0.96446195 1.75948066  79.78242676 -535.773170236894
0.83250669 1.68888476 130.12982349 -535.751635632843
0.78679170 1.98862165 103.00000000 -535.723536099112
0.89886995 1.70770821 103.00000000 -535.786063743307
1.00599790 2.08943051 103.00000000 -535.753553083758
0.88575849 1.68888476 108.47945186 -535.783623376311
0.96446195 1.68853397 107.72342388 -535.788522734309
0.96446195 1.47931079 124.75004602 -535.757097928900
1.23246644 1.73416338 103.00000000 -535.742211280431
0.80654463 1.68888476  98.45750980 -535.758437763786
1.22501083 1.68888476 106.70943180 -535.744236149563
1.12579858 1.68888476 130.17016458 -535.747755711588
0.85786925 1.68888476 134.30377596 -535.753854736063
0.96446195 1.69626897 131.38464221 -535.767867763487
0.96446195 1.98760759 105.35375874 -535.765677314812
0.80697444 1.68888476  76.56761850 -535.733734175516
1.17799649 1.67324051 103.00000000 -535.755700278265
0.92312862 1.85822534 103.00000000 -535.778867078322
0.90363489 1.68888476  92.80149991 -535.783332183941
0.96446195 1.65106835 121.66470948 -535.780207942902
0.96446195 1.79484242 127.75127205 -535.765878778484
1.11389060 1.79715601 103.00000000 -535.765748838977
0.96446195 1.70405028 129.14285103 -535.770476432727
1.11224783 1.68888476  68.84117008 -535.733292582452
0.79781698 1.68888476  77.40910626 -535.730597903544
0.96446195 1.82730699 139.09418871 -535.746056187926
0.96446195 1.72577300 127.33629359 -535.771586605704
0.96446195 1.56423497  87.99378034 -535.767666895330
0.96446195 1.87248988 123.42594668 -535.763755259704
1.16315867 1.68888476 106.31042196 -535.758861852541
1.02774095 1.68888476 126.28405735 -535.769453966588
0.96446195 1.92605300  76.34206801 -535.763584811255
0.96446195 1.79339116  68.77387499 -535.754813830217
1.06630963 1.99329679 103.00000000 -535.756160815816
1.35031298 1.66463315 103.00000000 -535.712655492874
0.93113910 1.65264600 103.00000000 -535.788532720154
1.18161620 1.66135740 103.00000000 -535.754598283867
0.84367807 1.68888476  69.37104248 -535.731848469969
0.82089829 1.90845701 103.00000000 -535.750309999191
0.89361370 1.68888476  92.94090422 -535.782135476155
1.14318105 1.68888476  66.60256021 -535.723214721350
1.18328573 1.72295801 103.00000000 -535.754230236208
0.96446195 1.80212410 123.59488253 -535.770293872440
0.79046451 1.68888476  98.63544003 -535.749753176637
1.08799723 1.68888476 104.73086106 -535.774598158081
0.96446195 1.69102895 100.37362833 -535.788907449802
0.96446195 1.59005736  85.96649422 -535.769449502705
0.96446195 1.96618249  96.91808329 -535.770007113915
0.96446195 1.81431134 121.51362239 -535.771487217778
0.98167118 1.85682255 103.00000000 -535.779162334138
1.23991653 1.45152596 103.00000000 -535.700438726787
1.12574705 1.95719618 103.00000000 -535.749153478279
0.96446195 1.84566596 113.72842244 -535.775562831229
1.19690306 1.68888476 109.44859103 -535.750155110551
1.09493162 1.69838729 103.00000000 -535.773379903107
1.14671276 1.68888476  73.50384249 -535.736200098096
1.16583222 1.68888476 103.90268790 -535.758583607259
1.13185607 1.68888476  81.29015801 -535.751538624405
1.41953836 1.68888476  95.20426187 -535.693732035065
0.96446195 1.72011441 137.56951398 -535.757461384703
0.96446195 1.81197073 130.46026201 -535.760702860518
0.77704976 1.72389248 103.00000000 -535.741142526882
0.84390889 1.80701218 103.00000000 -535.768642805932
0.96446195 1.72323207  74.54744024 -535.763502180067
1.03500792 1.68888476 113.67371010 -535.779857429232
0.96446195 1.88474423 111.03672672 -535.773549321416
0.85455870 1.68888476 102.35065939 -535.777533620399
0.96446195 1.59484513  82.67351842 -535.764754310611
1.28264774 1.53756959 103.00000000 -535.713494529361
0.94538759 1.68888476  69.20168653 -535.748402635524
1.31840478 1.52328336 103.00000000 -535.703895506211
1.05213757 1.68888476 135.14712109 -535.754184271035
1.22042088 1.65013977 103.00000000 -535.744960808927
0.96446195 1.83741225 111.80173763 -535.777674303752
1.31438715 1.53085109 103.00000000 -535.705974123139
1.03703048 1.68888476  75.51378509 -535.757866672014
0.83693024 1.68888476 111.82067653 -535.769997048436
0.96446195 1.70909283 114.73353984 -535.784656971178
1.19496072 1.68888476  86.23874728 -535.743616833946
0.77920873 1.71407888 103.00000000 -535.742932834641
0.96446195 2.05018291  90.61304356 -535.761196891778
0.96446195 1.83161783 119.69149402 -535.771747117780
1.37802705 1.72104615 103.00000000 -535.706040857799
1.00967418 1.68888476  98.47416439 -535.785472617114
0.96446195 1.53386676 114.12744839 -535.775645305075
0.96446195 1.58372458 127.23482553 -535.772322942910
0.94423529 1.68888476  90.23392549 -535.783868691982
0.84199212 1.68888476  82.96088741 -535.759439765263
1.23718921 1.68888476 100.93853401 -535.741617365232
0.83637350 1.89492156 103.00000000 -535.757877272588
0.67427139 1.76969838 103.00000000 -535.624921760098
1.01288721 1.68888476  63.17342845 -535.730401639478
0.92639136 1.68888476  86.63080387 -535.779624024168
0.96446195 1.55131726  94.32493951 -535.772888330949
0.96446195 1.69905492 137.23284891 -535.759227784427
1.08758838 1.62015116 103.00000000 -535.772428053538
0.96446195 1.53508306 132.09761088 -535.761717092326
0.96446195 1.82905814  87.00174516 -535.778655725350
0.96552386 1.81418031 103.00000000 -535.783400493255
0.99522109 1.68888476 109.12791848 -535.786352860269
0.96446195 1.55310318 121.76841684 -535.774346558389
0.90220003 1.68888476 116.19419714 -535.781949823527
0.93482421 1.76334593 103.00000000 -535.786714053572
0.96446195 1.76841453 135.77370444 -535.756676578511
0.96446195 1.66900781  72.88098631 -535.755297900468
0.96446195 1.52604205 101.42446825 -535.772844587109
0.96446195 1.98282577 102.37500449 -535.767273160935
0.82876066 1.68888476 121.20557067 -535.760251885530
0.96446195 1.73573538 134.02343903 -535.761819917847
0.96446195 1.78743251 107.84439569 -535.783962765837
0.74436980 1.64460524 103.00000000 -535.715947525003
1.23775051 1.54325402 103.00000000 -535.724189428667
0.96446195 1.84116974  84.69665540 -535.776292219766
1.06672193 1.68888476  94.04994259 -535.775954542895
1.04565522 2.08179924 103.00000000 -535.749924378547
0.85974026 1.45776269 103.00000000 -535.742892874739
0.96446195 1.84128745 114.54467133 -535.775363677158
1.29322280 1.68888476 111.20261015 -535.725743052718
1.30661389 1.74167126 103.00000000 -535.723539375876
0.97961951 1.84065488 103.00000000 -535.780691503621
1.19061695 1.68888476 105.57035833 -535.752681982771
1.10718892 1.68888476  84.44207053 -535.760392000845
1.43532186 1.68888476 117.33276531 -535.686207081703
1.10318967 1.62440555 103.00000000 -535.769771487242
0.96446195 1.82329105  91.68290257 -535.781575527711
1.22463627 1.68888476  96.14989531 -535.743497928089
0.96446195 2.09422637 104.45382146 -535.754714207574
0.96446195 1.67137754 102.46500521 -535.789032513404
0.96446195 1.73342804 125.32672201 -535.773544858797
0.96446195 1.89212759 108.92697224 -535.774042944375
0.93579461 1.73800135 103.00000000 -535.787979629866
0.96446195 2.08558695 119.18539789 -535.746335557256
0.96446195 1.65593531 124.66669764 -535.777185427008
0.87526068 1.91759560 103.00000000 -535.766509677325
0.99059429 1.68888476  84.31198879 -535.776215996178
1.12311785 1.69916042 103.00000000 -535.767828841955
1.03263439 2.06411220 103.00000000 -535.753420791101
1.00577772 1.68888476  73.96764099 -535.757907846888
0.96446195 1.80978098  83.17398869 -535.776350134975
1.35069859 1.71241979 103.00000000 -535.713084010759
1.11364398 1.91281494 103.00000000 -535.755996664580
1.05990995 2.01875962 103.00000000 -535.754468586987
1.01480848 1.68888476 139.70066466 -535.752118224110
0.87006977 1.68888476  69.44453355 -535.739540443171
1.07400071 1.91590042 103.00000000 -535.762867403747
0.97836319 1.68888476  81.73234928 -535.773350975413
0.96446195 1.81460882 123.80771861 -535.768929147211
0.85859636 1.73950169 103.00000000 -535.777261724250
0.89315411 1.96466320 103.00000000 -535.764724211375
0.96446195 1.82128550 120.52165581 -535.771878741015
0.96446195 2.08097710  98.67262656 -535.757789203963
1.15804522 1.68888476 130.59806278 -535.740261363388
1.09971838 1.68888476 106.84932749 -535.772044890526
1.14974437 1.68888476 138.73586339 -535.730069501738
0.96446195 1.84510569 151.35703887 -535.722222395469
1.04603956 1.57862612 103.00000000 -535.775140505214
0.81395861 1.49251145 103.00000000 -535.739464850192
1.12818834 1.68888476 110.34425205 -535.765189314918
1.14694018 1.68888476 117.63321704 -535.756711133805
1.03493339 2.17699541 103.00000000 -535.741879050056
1.09803529 1.68888476  79.86590793 -535.755967506641
1.28922210 1.68888476 116.25162577 -535.723778847083
1.41370752 1.68888476 101.91999210 -535.696956623602
0.83550419 1.68888476 105.78786158 -535.771392648726
1.22073069 1.68888476 113.85529393 -535.742288361750
1.11838612 1.68888476 129.11756733 -535.750649825424
0.96446195 1.75523046 130.96658906 -535.764796599189
0.96446195 1.68132645 102.83178342 -535.789138488103
0.96124704 1.86812440 103.00000000 -535.778846854866
0.75190899 1.68888476 117.24245552 -535.717631282830
0.96446195 1.44375189  89.43526196 -535.728303589633
0.81590014 1.68888476 130.35773173 -535.744616697794
0.96446195 2.00628585  91.72719817 -535.765735630399
0.96446195 1.67632682 112.69912131 -535.786672634181
0.96446195 1.59322078  85.51935980 -535.769284807993
1.09295988 1.56823384 103.00000000 -535.765672770171
0.96446195 1.67760620 116.44500618 -535.784321347891
0.96446195 1.73930311  78.94845470 -535.771668928178
1.15900629 1.68888476 112.03482246 -535.757726592730
0.95457881 1.94537734 103.00000000 -535.771155038941
0.96446195 1.74102432 120.40597994 -535.778347624746
1.25635136 1.62580069 103.00000000 -535.734630430865
0.86539253 1.80459724 103.00000000 -535.774892379807
0.96446195 1.83785828 111.19790339 -535.778015505227
0.91380283 1.50440340 103.00000000 -535.767194978708
0.90579268 1.68888476 133.36186542 -535.763646144648
1.38118121 1.68888476  96.96547117 -535.704335310294
0.81195539 2.14649562 103.00000000 -535.720423675181
1.24198709 1.61086543 103.00000000 -535.736969349003
0.91169783 1.43261052 103.00000000 -535.739622523801
1.13695796 1.68888476 117.70661611 -535.758803902040
0.96446195 1.64362173  83.87836578 -535.773445263906
1.07526710 1.68888476 138.74848410 -535.744851824255
0.86050315 2.05519506 103.00000000 -535.748037872637
1.13470737 1.68888476  95.57027194 -535.763853195840
1.32209806 1.66793391 103.00000000 -535.720027082393
0.89687567 1.69043297 103.00000000 -535.786054503890
0.95480681 1.68888476 135.64658416 -535.762350345204
1.12412423 1.68888476 100.30862615 -535.767467294223
0.96446195 1.73675022  66.89777077 -535.747545775756
1.21675198 1.66688342 103.00000000 -535.746396621237
0.96446195 1.79506507 111.67594669 -535.781412423577
1.00109608 1.82515415 103.00000000 -535.780514338775
0.81812247 1.68888476  78.27755864 -535.742360486828
0.88953358 2.15159459 103.00000000 -535.744305161026
1.16215569 1.88220093 103.00000000 -535.748775398024
0.96446195 1.62043024 120.40257055 -535.780786714802
0.92039554 1.41930894 103.00000000 -535.733087444568
0.96446195 1.68574450 104.37583481 -535.789112706268
0.96446195 1.74517606  80.48690029 -535.773997935631
0.96446195 1.56063088  76.89319356 -535.744817357407
0.96446195 1.80020396 117.30565867 -535.776797887327
0.75010381 1.68888476 104.92037381 -535.721333829701
0.96446195 1.69267806  84.97073003 -535.778405710770
0.90211790 2.00816303 103.00000000 -535.761257904419
0.96446195 1.69830932  71.53325870 -535.755316050977
0.93683790 1.56983116 103.00000000 -535.781875388424
0.99415086 1.68888476  72.41396062 -535.755388030538
0.96446195 1.70734730 127.61326337 -535.772249952875
0.77703118 1.68888476 112.50762159 -535.739703178947
0.96446195 1.55195111 106.13111877 -535.779623744465
1.09048478 1.68888476  75.55240003 -535.750205138527
0.90651856 1.52554842 103.00000000 -535.771897705740
0.95131379 1.59610653 103.00000000 -535.785222074973
0.96446195 1.76600175  90.75933577 -535.783857344496
0.97354681 1.68888476 112.74850528 -535.786112645612
1.02175520 1.75372302 103.00000000 -535.783101131400
0.96446195 1.76883576 103.94411146 -535.786366625779
0.96446195 2.11595493 120.47650894 -535.742421340838
0.85743270 1.68888476 131.33312244 -535.757839709157
0.83299217 1.71436778 103.00000000 -535.770149755662
0.86772205 1.64716156 103.00000000 -535.780355819371
0.96446195 1.61633018  86.74757175 -535.774476116247
0.96446195 1.68904528 127.07581840 -535.773696394093
0.86830020 2.09453381 103.00000000 -535.745813374599
1.01052957 1.66573117 103.00000000 -535.785835152195
1.01990968 2.14573882 103.00000000 -535.746573337348
1.12566964 1.71289761 103.00000000 -535.767124650910
0.97320610 1.68888476 112.79606184 -535.786102239150
1.02107641 1.74299859 103.00000000 -535.783655651069
1.05304622 1.68888476 116.18097936 -535.775607654266
0.96446195 1.78649420 145.52548966 -535.738707429379
1.04893605 1.63337531 103.00000000 -535.779750153319
0.90871276 1.90457543 103.00000000 -535.773092920886
1.31464132 1.68888476 107.31079312 -535.721719222239
0.96446195 1.83575875 102.50964026 -535.781776291089
1.00132935 1.68888476 129.32976651 -535.768584253146
0.96446195 2.17509581 112.55880240 -535.742780959475
0.79559854 1.68888476  93.69872460 -535.750317590714
1.07554794 1.68888476 108.08382501 -535.776124784190
0.70584622 1.68888476 128.41054029 -535.658269016469
0.87100867 1.68888476  88.50016494 -535.774272904468
0.78727020 1.68888476  75.27930204 -535.720045228674
0.96446195 1.87261458 106.59302215 -535.777127157036
0.73643653 1.68888476 146.72181837 -535.665870374788
0.96446195 1.66415801 112.92023195 -535.786610433622
0.96446195 1.75796138 111.56029010 -535.784136782997
1.15455349 1.71376369 103.00000000 -535.760928985334
1.00418267 1.83641904 103.00000000 -535.779322698561
1.38793888 1.68888476 114.40689195 -535.700056506783
0.96446195 1.67403057  65.09147020 -535.735203054242
0.92269316 1.76622176 103.00000000 -535.785943757180
0.96446195 1.77536309  87.20709558 -535.781060416009
0.73793827 1.49454263 103.00000000 -535.688334092098
0.96446195 1.79741259  80.22969215 -535.773470797581
1.19633766 1.42391849 103.00000000 -535.697661134675
0.89255383 1.53838775 103.00000000 -535.772997813802
1.28505796 1.61789328 103.00000000 -535.726581314431
0.96446195 1.67555604 100.87645427 -535.788890134371
1.21080238 1.72321595 103.00000000 -535.747743877678
0.96446195 1.74773622 102.89769501 -535.787621638774
0.96446195 1.66598753 108.91407896 -535.788256437273
0.96562428 1.68888476 100.23154051 -535.788845642939
1.03451058 1.60380827 103.00000000 -535.779607850588
0.96446195 1.75072609  71.27584008 -535.758403094202
0.96446195 1.60949223 104.37079153 -535.786418924326
0.91294101 1.68888476 107.13455655 -535.787370468689
1.00658767 1.68888476 107.25417412 -535.785898547025
0.70178476 1.71829738 103.00000000 -535.668449021649
1.06028045 1.68888476  63.59813489 -535.727687779514
0.90231259 1.68888476 116.28198619 -535.781899714538
1.44401301 1.66951658 103.00000000 -535.688175986505
0.96446195 1.73027836 101.86300788 -535.788360615049
1.22823220 1.71959675 103.00000000 -535.743619598901
1.15003807 1.68888476 107.87371174 -535.761392311875
0.96446195 2.07070578 107.32090292 -535.755890047377
0.96446195 1.71161709 127.48668089 -535.772190559661
0.72655220 1.63443274 103.00000000 -535.698037835597
0.81776617 1.61776891 103.00000000 -535.762650313861
0.90722119 1.63045819 103.00000000 -535.785938106345
0.91366944 1.68888476 113.82589684 -535.784641354500
0.91183356 1.68888476 145.80465100 -535.744838717825
1.04011270 2.16986785 103.00000000 -535.741907196256
0.84360429 1.84223019 103.00000000 -535.765523978847
1.26734004 1.73711352 103.00000000 -535.733524643994
0.96446195 1.72041225 145.10809102 -535.744989799323
1.06721379 1.78863953 103.00000000 -535.774765822901
0.96446195 1.49947930 135.59642501 -535.751264638532
1.10158033 1.68888476  77.84529523 -535.752186444235
0.96446195 1.82522280 102.91448726 -535.782567460033
1.18375683 1.68888476 126.09160145 -535.740091778466
1.03990987 1.43524433 103.00000000 -535.732228393644
1.02733648 1.68888476 110.80980409 -535.782348031760
0.70092094 1.68888476  84.68974795 -535.655903515543
1.10014403 1.72050699 103.00000000 -535.772037268808
0.84027246 1.68888476  70.50855718 -535.733716306186
0.96446195 1.91698100 105.97098020 -535.772921548523
0.74135461 1.68888476  98.21770649 -535.712562238722
1.13290516 1.68888476 135.61566350 -535.738539439092
0.73980667 1.72311102 103.00000000 -535.711073623679
1.26741875 1.62220165 103.00000000 -535.731525786385
0.96446195 1.71630219 101.55817289 -535.788742659392
0.95385636 1.96473422 103.00000000 -535.769104645284
1.19156114 1.68888476 122.73202864 -535.741959459229
1.16469385 1.68888476 100.91527286 -535.758774786573
1.18539558 1.68888476  79.93056191 -535.738227397740
0.96446195 1.63412477 132.27832920 -535.768079760724
1.03025065 1.68888476  98.22308813 -535.783056556058
0.71479938 1.71699067 103.00000000 -535.684727196043
0.84522257 1.68888476 110.23285986 -535.773439791030
0.95452387 1.69343257 103.00000000 -535.789306842987
0.76532257 1.88109503 103.00000000 -535.720442792549
0.96446195 1.93559245  76.04671309 -535.762699611616
0.96446195 1.97967777 111.71677087 -535.763044023701
1.01146715 1.68888476 127.36922501 -535.770041056192
0.96446195 1.57328287  88.70687661 -535.770475057394
1.16062320 1.68888476 121.27069458 -535.750491291838
1.07444425 2.07900986 103.00000000 -535.745913403943
1.11721086 1.68888476  72.66925506 -535.740214935953
0.96446195 1.52489862 126.62148993 -535.765891561698
0.96446195 1.54881686 138.48408104 -535.755353038437
1.02364694 1.68888476 104.90470070 -535.784466987640
1.11474522 1.68888476 118.82151225 -535.762485793871
0.96446195 1.64769859  95.34952103 -535.785791040960
0.96446195 1.68621320  87.17937193 -535.780693242113
1.11607813 1.68888476  84.46851401 -535.758709514677
0.96446195 1.92701589  98.76516201 -535.773824408270
1.01931029 1.64377182 103.00000000 -535.784198486279
1.08701666 1.68888476  79.68704934 -535.757628903061
1.29316457 1.54657934 103.00000000 -535.712628682356
1.12277160 1.68888476  69.36257864 -535.732617536730
1.20481966 1.68888476  81.39738934 -535.735764800144
0.96446195 1.68977182  77.09021777 -535.766099619454
1.06716198 1.68888476  70.04377873 -535.742762472632
1.30179044 1.68888476  93.41824875 -535.723032664359
0.96446195 1.69870891 123.35124925 -535.777541700429
0.96446195 1.92128539 105.43523801 -535.772697236012
1.10903518 1.68888476  78.50616090 -535.751881864511
0.96446195 1.70395953 114.23758439 -535.785166578183
0.96446195 1.75198162 119.27171861 -535.778715720224
0.96446195 1.74796859  84.78920756 -535.779236753617
0.96446195 1.73310053 104.64173031 -535.788019164541
0.96446195 1.84605993 118.22457437 -535.771770750164
0.96446195 1.57460901 109.14901392 -535.782889864133
0.97491916 1.68888476 125.73712345 -535.774852467846
1.02247540 1.68888476  60.39605778 -535.721213331879
0.96446195 1.84520140  80.13156785 -535.771840745443
0.84422668 1.68888476 103.03048642 -535.774492523817
1.01095992 1.68888476 102.35861448 -535.785972689580
0.75201562 1.68888476  96.89108523 -535.721577228200
0.97048750 1.52092027 103.00000000 -535.772167378590
1.11054181 1.77841878 103.00000000 -535.767577469023
1.10552863 1.68888476 105.95848279 -535.771106437923
0.96446195 1.78108988  84.51644613 -535.778510954725
1.08779699 1.66573730 103.00000000 -535.774491856212
0.74522380 1.86472214 103.00000000 -535.705285803144
0.96446195 1.67121298  72.30697843 -535.754221452539
0.96446195 1.69280758  92.47519653 -535.785576988091
0.96446195 2.00183476  86.31689860 -535.764758729877
0.83895340 1.95842614 103.00000000 -535.752001677761
1.21755861 1.68888476 108.93698567 -535.745402882528
0.96446195 1.84783178 109.59199921 -535.778027411850
0.96446195 1.72556489  96.42881084 -535.787576181154
0.96446195 1.98347357 125.16144919 -535.750409394856
0.96446195 1.94357385 125.02157590 -535.754617576218
0.96446195 2.11191466  85.87599909 -535.754243923946
0.96446195 1.96713668 119.74374894 -535.757796586648
0.96346635 1.81973754 103.00000000 -535.783014179695
1.00419311 1.61198491 103.00000000 -535.783839525201
0.84781629 1.68888476 119.80050747 -535.768051850642
1.34286253 1.54806251 103.00000000 -535.702811121220
1.06589150 1.68888476 108.62612485 -535.777584385430
1.31811315 1.68888476  82.83447736 -535.709938200418
0.75161873 1.68888476  78.41514863 -535.700348620571
1.44504725 1.59735260 103.00000000 -535.687501512843
0.96446195 1.94599513  98.37118294 -535.771951213829
1.16604673 1.89424411 103.00000000 -535.746800205948
1.00031668 1.57526281 103.00000000 -535.780232571689
0.96446195 1.58380540  81.35878952 -535.760185696178
1.11663509 1.68888476 111.36274258 -535.767102770900
0.88783056 1.68888476 137.18209236 -535.755777927442
1.13572503 1.82588562 103.00000000 -535.759235186185
1.09916429 1.64748449 103.00000000 -535.771798671608
1.05180238 1.84903065 103.00000000 -535.772569745552
0.99450899 1.68888476  89.48484247 -535.781548138786
0.99496317 1.80913944 103.00000000 -535.782248927039
0.81526699 1.95762233 103.00000000 -535.742444731132
1.15103825 1.68888476  99.64280012 -535.761622234700
0.96491781 1.67135836 103.00000000 -535.789052143898
0.81472831 1.68888476  64.72058033 -535.706376390663
0.77345432 1.68888476  98.17058879 -535.738660906814
0.96446195 1.82747295  59.35729151 -535.733812454930
0.85382286 1.68888476  97.51211800 -535.776255304287
0.96446195 1.83331308  78.54385066 -535.770481372703
1.33766955 1.68888476  85.85878176 -535.708165160729
0.96446195 1.59692753  97.64042743 -535.782851221773
0.96446195 2.06069161  90.29763153 -535.760106411634
0.96446195 1.73730892 132.75171581 -535.763566509629
1.10595161 2.00929630 103.00000000 -535.747616588244
0.83971957 1.44071601 103.00000000 -535.729805866530
0.96446195 1.55746830 144.52159840 -535.747645008716
1.01982148 1.68888476  82.38509535 -535.771083690216
0.96446195 1.73524695 116.75474981 -535.781928183148
0.96446195 1.61518859  98.95108370 -535.785400782436
0.96446195 1.89606064  90.04393448 -535.775577267726
0.92051207 2.09011000 103.00000000 -535.754388354187
1.06346344 1.68888476 113.69646990 -535.775613437596
1.24093147 1.59834037 103.00000000 -535.735880156937
1.17836859 1.65470074 103.00000000 -535.755140771670
0.96446195 1.72543836 143.73525028 -535.746977225330
1.17752246 1.68888476 127.10124587 -535.740327987845
0.96446195 1.55369855 110.30947501 -535.779876399227
0.96446195 1.81031798  67.77054772 -535.753150988917
0.89672909 1.68888476 128.99193216 -535.768439019666
0.80470600 1.68888476 117.99662644 -535.752356637262
1.03256918 1.68888476 128.78589657 -535.765769422156
1.10674335 1.68888476  94.17421697 -535.768839244384
0.75579918 1.68888476 110.99830178 -535.724581553486
1.00259815 1.58640914 103.00000000 -535.781442150339
0.93123743 1.68888476 147.91789762 -535.742393555236
1.15687354 1.65110123 103.00000000 -535.759898092912
0.96446195 1.54601075 109.65656342 -535.778707909589
0.88372967 1.68888476  89.46816640 -535.777729279621
1.14948000 1.68888476  95.55977800 -535.760678733384
1.03092308 1.68888476  83.51303603 -535.771341666364
1.04405702 1.68888476  84.23096048 -535.770565024900
0.96446195 1.60068162 101.25890536 -535.784949806562
1.14616230 1.94481632 103.00000000 -535.746185634168
1.05561204 1.63505537 103.00000000 -535.778822970146
0.96446195 1.83435555 139.41654992 -535.744850945086
1.37121143 1.62685684 103.00000000 -535.703989328150
0.88672000 2.03611008 103.00000000 -535.755884044843
0.94537973 1.52806813 103.00000000 -535.774373205269
1.40324561 1.68888476  93.44558567 -535.697085594320
0.96446195 1.80118802  71.24624301 -535.759788878986
1.13298904 1.68888476  78.76485596 -535.747670779243
1.44097423 1.68888476  98.66816082 -535.689371828697
0.81854562 1.50379613 103.00000000 -535.744732650474
0.96446195 1.72953081  76.66885764 -535.767667969469
0.96446195 1.61596209  68.53193840 -535.734917941054
0.96446195 1.77709363  82.88183515 -535.776898869720
0.96446195 2.09455168  95.38566351 -535.756834664505
0.81767784 1.68888476 122.72586315 -535.754218533357
1.14513811 1.68888476  94.20487628 -535.760963660479
1.50086580 1.68888476 109.40853141 -535.673567438667
0.70623880 1.68888476 100.52473145 -535.674727185698
1.10445515 1.61488748 103.00000000 -535.768816799146
1.00752498 1.98974436 103.00000000 -535.763922339885
0.96446195 1.41217047 107.01358521 -535.730985873133
0.96446195 1.69127444 126.05276373 -535.774823347844
0.96724651 1.68888476 134.00430232 -535.764430235979
0.96446195 1.76242078  97.73107945 -535.786726349698
0.89748897 1.67509919 103.00000000 -535.786142720115
0.83013656 1.98318537 103.00000000 -535.745984199846
1.05641791 1.84601870 103.00000000 -535.772140879182
0.96446195 1.86730460 111.02650261 -535.775303941582
1.06614104 1.68410083 103.00000000 -535.778486781392
0.96446195 2.07031619 104.87918212 -535.757034342578
1.17708510 1.68888476 110.49106383 -535.754357621370
0.81658427 2.10204449 103.00000000 -535.727206773928
1.01523126 1.68888476 127.72846470 -535.769194967790
0.79966262 1.68888476 109.84975341 -535.754506552765
0.80919746 1.68888476  66.05285777 -535.707949764764
0.83303809 1.62733090 103.00000000 -535.769340074911
1.06357118 1.52023609 103.00000000 -535.761364454778
0.86450002 1.68888476  62.99807939 -535.718561173969
0.96446195 1.61563960  97.69815535 -535.784816405283
1.39880032 1.68888476  97.42119670 -535.699951701209
0.96446195 1.41235601 110.88688062 -535.732519908584
0.96446195 1.84829987 107.55111907 -535.779012668317
1.11608482 1.72649779 103.00000000 -535.768760847630
1.39759717 1.72520680 103.00000000 -535.701027665913
1.03871293 1.68888476 125.90183531 -535.768450878942
0.96446195 1.65478491 101.20597588 -535.788472003527
1.02376223 1.68888476 125.24376942 -535.771146317476
0.96446195 1.54846536 116.18165024 -535.777234685553
0.79333815 1.83631621 103.00000000 -535.743587282250
0.96446195 1.83381532  92.31216464 -535.781134246966
0.96446195 1.53426239  87.29927649 -535.759433305460
1.29206393 1.68888476 105.50642116 -535.727802098799
1.05626567 1.68888476  81.32877607 -535.764948838065
0.97672991 1.68888476 107.58637610 -535.788059004249
0.96446195 1.53040089  84.20115751 -535.752706982705
1.02424265 1.63888768 103.00000000 -535.783391581023
1.05897994 1.68888476 124.36787444 -535.767170596732
0.96446195 1.92003037 121.77807743 -535.760671403547
1.01822347 1.68888476 120.93547700 -535.776289571531
1.37823159 1.68888476 117.81977811 -535.700178384029
0.96446195 1.62091769  97.22890190 -535.785017676577
1.10592183 1.68888476  71.97310747 -535.740835280137
1.26817000 1.71216113 103.00000000 -535.733904071071
0.95759554 1.68888476 128.92749274 -535.771584537415
1.25123901 1.68888476 106.94979881 -535.737737552352
1.06094041 1.68888476  93.48836062 -535.776557372473
0.90957544 1.68888476  88.65207494 -535.780467634453
0.95885000 1.68888476  78.62352204 -535.768860353486
1.04315346 1.79547360 103.00000000 -535.777952248324
0.96876228 1.68888476  96.81198424 -535.787746167553
1.00320415 1.82984866 103.00000000 -535.779952443450
0.96446195 2.04135274 119.83218928 -535.750082275150
1.08258346 2.10212189 103.00000000 -535.742207741303
0.83639917 1.68888476 134.42204880 -535.747197059346
0.96446195 1.56786999 137.58819901 -535.758347831196
0.96446195 1.83990303  61.37996990 -535.739557007243
0.99456759 1.68888476 132.72623872 -535.764595809359
1.26516957 1.68888476  88.37600556 -535.728688360389
0.89755001 1.66208421 103.00000000 -535.785984688023
0.96446195 2.07807803 106.09378300 -535.755699082173
0.84266100 1.68888476 131.99142145 -535.752661477039
1.25331325 1.56936281 103.00000000 -535.727894918151
0.98695933 1.68888476 115.01461932 -535.783965275734
0.96446195 1.61340374 146.29762199 -535.747297261665
0.96446195 1.77437256 143.00569052 -535.744251552610
1.03244247 1.69630542 103.00000000 -535.783444068283
0.96446195 1.97237450 119.25969046 -535.757709608849
0.83016281 1.68888476  67.40098370 -535.721343781811
0.81794910 1.71974667 103.00000000 -535.763901897509
1.10591104 1.68888476 111.59440499 -535.769123218007
1.04733088 1.68888476 131.55552458 -535.760043539595
0.96185575 1.45193017 103.00000000 -535.749465123326
1.01708933 1.68888476  92.36711181 -535.781736184694
0.96446195 1.69926107  93.88017300 -535.786550770936
0.87618213 1.53000888 103.00000000 -535.768550510428
1.07996540 1.63340397 103.00000000 -535.774662978398
1.15827149 1.49440883 103.00000000 -535.731367039056
0.96446195 1.85167885  91.68602478 -535.779647979054
0.96446195 1.81254528  92.58254790 -535.782596046709
1.15163943 1.65931134 103.00000000 -535.761338159384
1.32803900 1.68888476 120.54685583 -535.710545209385
0.96446195 1.99515531 123.25579647 -535.751332596603
1.17882247 1.68888476 102.88493085 -535.755654060627
1.23770693 1.75355970 103.00000000 -535.740219412635
1.03422582 1.68888476  81.71196837 -535.768474393266
0.96446195 1.94531834  79.87604962 -535.765646172064
0.99923865 1.89980568 103.00000000 -535.773918375613
0.93045909 1.58763886 103.00000000 -535.783967341136
0.96446195 1.74085701 103.50513303 -535.787862107248
0.98937885 1.68888476 117.45332350 -535.782025283825
1.07298476 1.44167284 103.00000000 -535.729436749887
1.17337594 1.62072111 103.00000000 -535.754438974148
0.96446195 1.62847345 107.19008640 -535.787610804095
0.96446195 1.60882531  60.51910141 -535.704842298753
1.03450953 1.56365526 103.00000000 -535.774606416957
1.10509041 1.68104555 103.00000000 -535.771443118612
1.48791785 1.68888476 111.27791004 -535.676312935472
0.83975094 1.51421255 103.00000000 -535.755468640275
0.96446195 1.61914578  75.54423324 -535.754254658456
0.95046641 1.71563524 103.00000000 -535.788956780942
1.41392874 1.68888476  91.22738148 -535.692932833899
0.96446195 1.46181530  90.88024026 -535.739652700108
0.96446195 1.77607592 114.76522495 -535.780780823084
0.96446195 2.15466562 117.67796904 -535.741206495203
0.90459393 1.68888476  75.46597807 -535.759924760447
0.90660057 1.68888476 100.88694331 -535.787033869005
1.02826379 1.73705279 103.00000000 -535.783032927035
1.21375089 1.54315788 103.00000000 -535.732611883761
0.96446195 1.79253002 106.13553325 -535.784230229005
0.96446195 1.73985011  59.20777573 -535.725782488518
0.96446195 1.68690912  89.93759556 -535.783436702261
0.96446195 1.84700361 131.38417499 -535.756078549131
1.25572477 1.68068056 103.00000000 -535.737062506066
0.96446195 1.83942172  78.89188083 -535.770683605122
0.96446195 1.74290667  76.78981243 -535.768345668649
0.96446195 1.71344974  99.23533120 -535.788527658884
1.21475630 1.68888476  79.27280027 -535.730625145108
0.77423206 1.56689190 103.00000000 -535.733272175677
0.96446195 1.72729621 108.43133133 -535.787232890021
0.96446195 2.07426447 116.07962854 -535.749962594443
0.96446195 1.80908427 103.89632625 -535.783627383705
0.96098686 1.63824577 103.00000000 -535.788185575831
0.96446195 1.91527216  83.18634670 -535.770374149327
1.15213207 1.63508145 103.00000000 -535.760195496876
0.73930038 1.82380741 103.00000000 -535.703671047124
0.98043882 1.68888476 117.89883301 -535.782258322425
0.96446195 1.67925684  94.05348046 -535.786298314262
0.84533202 1.68888476  98.60753635 -535.774108622052
1.20127670 1.55587938 103.00000000 -535.739173133562
0.96446195 1.66147093 121.90168742 -535.779941054319
1.09898613 1.68888476 127.66461128 -535.756300980082
0.91722772 1.71158586 103.00000000 -535.787834730982
1.09691033 1.89672998 103.00000000 -535.760723003561
1.00142561 1.68888476 105.79198301 -535.786683010960
0.91520379 1.41559623 103.00000000 -535.730702224906
1.18934827 1.54590625 103.00000000 -535.740041003527
1.15771371 1.68888476 103.31226945 -535.760433431304
0.96446195 1.60769783  62.51892846 -535.712440465472
0.96678581 1.68888476 116.18806107 -535.784201236377
1.15286850 1.69090126 103.00000000 -535.761515456176
0.96446195 1.66340420 121.32669397 -535.780465767175
1.09337889 2.01680108 103.00000000 -535.749140828562
0.96446195 1.82319152  58.96106478 -535.732491168952
0.85975736 1.88432440 103.00000000 -535.766256041808
0.96446195 1.65700905 125.78839677 -535.775950918097
1.07290283 2.09615543 103.00000000 -535.744411607954
0.96446195 1.84292580  76.07738558 -535.767040076513
0.87839058 1.62216753 103.00000000 -535.781342292209
0.96446195 1.88818202  79.29091604 -535.768827599396
0.96446195 1.82972637 141.67831084 -535.741452219234
0.96446195 1.56458290 129.41587978 -535.768317579801
0.95551938 1.77497920 103.00000000 -535.786305554693
1.21267571 1.66796604 103.00000000 -535.747406380536
1.10474598 1.85587660 103.00000000 -535.762985658489
1.01797306 1.77411550 103.00000000 -535.782441997824
0.96446195 1.73699184 118.22761361 -535.780597750550
1.09736276 1.68888476 135.06673116 -535.746501023631
0.96446195 1.47287751 105.06286827 -535.758963539897
0.69242663 1.68888476  89.49326357 -535.649843128968
0.96723788 1.68888476 112.56709227 -535.786467074669
1.21063393 1.47166170 103.00000000 -535.713148724563
0.77116258 1.68888476  77.32400037 -535.713587248373
1.08032851 1.78820756 103.00000000 -535.772584452837
1.07007876 1.96898492 103.00000000 -535.758102098319
0.96446195 1.44569047 104.71964644 -535.747619327411
0.91709738 2.02311355 103.00000000 -535.761248107946
0.96446195 1.69033885  70.56884516 -535.752246640233
1.06064278 1.68888476 121.73567865 -535.769651136162
0.96446195 1.70157578  96.07862899 -535.787653857751
0.97637983 1.68888476  95.66154272 -535.786919321971
0.96446195 1.63832885  84.16458615 -535.773323678864
0.80952155 1.68888476  76.80831640 -535.735484679220
0.96446195 1.48234149  78.91460305 -535.722746181247
0.96446195 1.51912909  96.84656330 -535.767742159572
0.91105455 1.71698292 103.00000000 -535.787173433083
0.96446195 2.00981047  85.10969329 -535.763531588042
0.82019893 1.68888476 119.79972164 -535.758062940832
0.96446195 1.61641032  93.29296519 -535.781799459913
0.96446195 1.71532608 119.17002334 -535.780909797347
0.81154231 1.57193622 103.00000000 -535.755278283415
0.82817160 1.68888476 100.51741613 -535.768547967900
1.23431736 1.68888476 127.67491316 -535.726195224893
0.96446195 1.73800509 102.68574638 -535.788053255676
1.39196639 1.68888476 120.37954747 -535.694632604409
0.95459184 1.68888476  78.49233018 -535.768642378603
1.22418084 1.68888476 117.84178859 -535.738653950258
0.96446195 1.69814739  96.62870433 -535.787870405930
0.84261587 1.68888476  64.54586609 -535.717092604944
1.02408774 1.68888476  84.32376893 -535.773179004591
0.95969103 1.78293190 103.00000000 -535.785754006881
1.00743054 1.63521818 103.00000000 -535.785070462073
0.97486898 1.74399925 103.00000000 -535.787401462218
0.96446195 1.75825682  67.43785244 -535.750359480565
1.07275905 1.68888476 118.17206744 -535.770870808360
0.80378282 1.43426095 103.00000000 -535.712081511612
0.96446195 1.77359061  93.24990927 -535.784867165520
1.14457295 1.68888476 106.78516782 -535.762868345680
0.96446195 1.59989175  88.02855704 -535.773976528779
0.94369709 1.68888476  97.04313252 -535.788122014419
0.96446195 1.43132855  69.21493040 -535.662207995492
0.91148055 1.56019996 103.00000000 -535.779040586891
1.38800109 1.70992341 103.00000000 -535.703650571755
0.96446195 1.71681598  94.55462780 -535.786918743956
1.00148119 1.68888476 110.63155188 -535.785222148614
1.23400555 1.61211476 103.00000000 -535.739094825165
0.81629401 1.81831823 103.00000000 -535.757009006432
0.95035277 1.64198802 103.00000000 -535.788495554608
0.82112525 1.68888476 108.58481972 -535.765183281251
0.82751954 2.25191835 103.00000000 -535.717524258108
0.79427575 1.68888476  69.44187154 -535.709886734090
0.96446195 1.90741658  83.07782345 -535.770865032849
1.05066099 1.68888476 113.79280825 -535.777560078699
0.90680716 1.68888476  86.60052968 -535.777980436801
1.04235994 1.80708289 103.00000000 -535.777248978369
0.86192871 1.68888476 128.88044514 -535.762150326973
0.96446195 1.92297637  83.80004468 -535.770214280258
1.10853545 2.04260291 103.00000000 -535.743658305565
0.75180888 1.87640308 103.00000000 -535.709944322027
0.96446195 1.71674242  76.68789180 -535.767103882373
0.79738976 1.68888476  99.38003286 -535.753914468238
0.96446195 1.85864190  98.35989025 -535.780253486163
0.99132333 1.71246602 103.00000000 -535.787447732043
1.53204863 1.70956778 103.00000000 -535.667014138393
1.18839131 1.68888476 108.55417222 -535.752471113744
0.96446195 1.63459538  98.03565072 -535.786447293944
1.14131039 1.89256755 103.00000000 -535.752313946695
0.83767630 1.68888476 114.62057078 -535.768697834594
1.29900016 1.61530212 103.00000000 -535.722645850612
0.75356001 1.68888476  97.64418030 -535.723195087434
1.00031660 1.68888476 125.26659210 -535.773602403175
1.27319378 1.63772637 103.00000000 -535.731173482832
1.18827332 1.68888476  98.20852735 -535.752847103573
0.84378347 1.95271732 103.00000000 -535.754279040783
0.92766399 2.04364421 103.00000000 -535.759822091592
0.96446195 1.81420462  77.90759553 -535.770193832238
0.96446195 1.68940299  89.94789323 -535.783521856120
0.96446195 1.53842133 118.92282627 -535.774177400375
0.99372162 1.68888476  81.63021186 -535.772315017779
0.96446195 1.74270044  70.17478257 -535.755639852065
0.95366968 1.96319179 103.00000000 -535.769268629107
0.77099895 1.68718674 103.00000000 -535.737869882588
0.81855326 1.75441111 103.00000000 -535.762595470722
1.08124455 1.68888476 140.54910665 -535.740891540100
1.02221083 1.68888476 120.36208803 -535.776362306970
0.96446195 1.46318107  87.79353989 -535.734698436480
1.15648119 1.68888476  93.89392068 -535.758320187292
0.87374585 1.69406212 103.00000000 -535.782131229069
1.09011070 1.68888476  86.83377907 -535.766196622533
0.99724084 1.68888476 102.71912926 -535.787265139069
1.15056554 1.55089937 103.00000000 -535.750542275476
1.09921930 2.02836346 103.00000000 -535.746875536205
0.98174132 1.95361479 103.00000000 -535.769566726612
0.96446195 1.94442433  76.80023588 -535.762919571615
1.00715154 1.68888476  71.36310613 -535.752180107342
1.14390492 1.84975775 103.00000000 -535.755584144636
0.96446195 1.77389792  79.10307575 -535.772269160782
0.96446195 1.61414711 126.74384370 -535.774433996259
0.96446195 2.00191438 108.18729032 -535.762772818703
0.96446195 1.44149320  72.99777361 -535.682982091383
0.96446195 1.63965544 106.73475317 -535.788151590037
1.07810344 1.57603484 103.00000000 -535.769544364643
0.76827354 1.63770446 103.00000000 -535.735246200124
0.84846908 1.80941828 103.00000000 -535.769891033105
1.41902355 1.73410142 103.00000000 -535.695454106080
0.94130620 1.68888476  78.85506965 -535.769080237711
0.85920311 1.68888476 115.14790101 -535.774818096234
0.95426552 1.68888476 111.02803358 -535.787521770494
0.96446195 1.62972037  91.99004374 -535.781915041504
0.93101247 1.68888476 131.95832660 -535.767342070101
0.96446195 1.68771931  96.08104423 -535.787553747841
0.96446195 1.80800700  73.42691347 -535.763628157777
0.96446195 1.96335291 126.69158664 -535.750634037733
1.17823976 1.64995001 103.00000000 -535.754991651444
0.96865794 2.14795595 103.00000000 -535.749741253708
1.32715072 1.74993681 103.00000000 -535.718065689088
1.18953175 1.63596909 103.00000000 -535.751675373620
0.96446195 1.62409494  67.59817285 -535.733792797322
0.96446195 1.94789776  82.97800799 -535.767726459733
1.20358088 1.64316334 103.00000000 -535.748715075584
0.96446195 1.84016058  82.47211250 -535.774416268004
1.33492585 1.68888476 118.63446006 -535.710453203151
1.39410885 1.80750687 103.00000000 -535.698195506636
0.96446195 2.16141485 111.55380514 -535.744612018096
1.11350460 1.62037759 103.00000000 -535.767439731447
0.96446195 2.01491375 104.19547423 -535.763206457759
0.93125953 1.68888476  89.80094030 -535.783103016386
0.96446195 1.68830611  73.82264589 -535.759447149031
0.96446195 1.55960500 112.98672281 -535.780109704830
0.96446195 1.62913582  72.76097738 -535.749215839597
1.37548007 1.68888476 112.88130103 -535.704073137630
1.03166123 1.68888476 112.48319391 -535.780974356220
1.09489372 1.61932790 103.00000000 -535.771003844239
1.06703050 1.57763650 103.00000000 -535.771681982189
0.96446195 1.93294320  99.19405574 -535.773177943580
0.92984640 1.61834507 103.00000000 -535.786768343619
1.53860471 1.66294673 103.00000000 -535.671006368836
1.07006024 1.68888476 103.85439909 -535.777817529566
0.96446195 1.79035206  64.47788305 -535.745041157066
1.09679297 1.68888476 112.67002600 -535.770318545665
1.07980837 1.44448710 103.00000000 -535.729429788024
0.89228505 1.97845471 103.00000000 -535.763092277604
1.11325493 1.68888476 130.35272251 -535.750064642531
0.96446195 1.88508809 107.05578228 -535.775692372230
0.91980853 1.53977361 103.00000000 -535.776006785730
1.00609713 1.68888476  92.60366320 -535.783012869420
1.14664526 1.68888476  78.03238608 -535.743782929632
0.96446195 1.75939652  82.23938591 -535.776329403360
1.07560128 1.68888476 134.97416915 -535.750601277824
0.96446195 1.89046522 114.89592207 -535.770191215500
1.05428059 1.68888476 107.11038772 -535.779867599035
0.98428260 1.68888476 102.42764906 -535.788208965214
1.01612753 1.68888476  92.96607843 -535.782240250558
0.96446195 1.56541082  79.02591182 -535.751129789414
1.09635982 1.68888476  92.67495054 -535.769931795440
1.44785370 1.68888476 119.94263944 -535.681082022424
0.96446195 1.75978974  84.48673324 -535.778842530319
0.96446195 1.51062098 143.13632996 -535.743662587681
0.73767924 1.68888476 105.76968801 -535.709857811248
1.04410132 1.68888476 106.28054869 -535.781560952858
0.78334597 1.68888476  93.04746102 -535.742559085695
1.11485811 1.83122617 103.00000000 -535.763068151497
0.86013787 1.68888476 117.84620199 -535.773099455403
0.86974990 1.68888476  79.29821815 -535.761254304623
0.96446195 1.49658016  79.61940251 -535.730637635473
1.09358235 1.90525874 103.00000000 -535.760510243759
0.95717675 2.05433696 103.00000000 -535.759506932445
0.74739849 1.72609871 103.00000000 -535.717942532549
0.96446195 1.60485730 118.31758927 -535.781665776745
0.96446195 1.83630752  79.50048753 -535.771499369810
0.96446195 1.80964544 122.44773916 -535.770903977483
1.20727928 1.68888476 113.04560374 -535.745995344717
1.07195734 1.80622075 103.00000000 -535.772795254069
0.80792139 1.68888476  74.41083357 -535.729586687923
1.32195139 1.68888476 111.95553955 -535.718123698190
1.02099043 1.68738223 103.00000000 -535.784888646004
0.95051806 1.68888476 106.68003688 -535.788988014690
0.89220863 1.68888476  83.40426246 -535.772001359839
1.04418002 1.68888476 132.27709876 -535.759505741823
0.92303061 1.89182892 103.00000000 -535.775628161399
0.96446195 1.57329739 127.31866451 -535.771406228543
1.13728471 1.68888476 108.70486901 -535.763893345484
0.96446195 1.96275016 124.44540509 -535.753316704555
0.96446195 1.59457879 135.85333449 -535.762348415830
0.96446195 1.76946639  87.37545320 -535.781353046322
1.03731324 1.94628807 103.00000000 -535.765212566365
0.82919631 1.68888476  69.75375075 -535.727591912593
0.78713819 1.93172258 103.00000000 -535.730089542035
0.93599096 1.68888476 108.47358590 -535.788325946252
0.90586026 1.68888476  99.16841219 -535.786602343682
1.08244067 1.68072817 103.00000000 -535.775671888424
1.23419707 1.57858426 103.00000000 -535.734837746024
0.96446195 2.13152387  88.31044277 -535.752898411219
0.95854294 1.68888476  89.40461638 -535.783134789295
0.75041096 1.68888476 104.22680540 -535.721639726227
1.38293652 1.68888476 108.43028024 -535.704030696040
1.05193160 1.68275368 103.00000000 -535.780724911499
1.06741148 1.68888476 119.92385889 -535.770259204212
0.84758072 1.97714295 103.00000000 -535.752829678021
0.99860030 2.00392857 103.00000000 -535.763155688217
0.88030066 2.16005560 103.00000000 -535.741773427887
0.81067517 1.68888476  61.13329469 -535.691958751722
0.96446195 1.70635090 124.27963252 -535.776208264889
1.04336634 1.50466433 103.00000000 -535.760394356667
0.96446195 1.86553874  94.49898160 -535.779337859638
1.07131112 1.68888476 109.11162955 -535.776512496827
1.02071408 1.85298165 103.00000000 -535.776245027352
0.96446195 1.76055341 101.77478691 -535.787079673529
0.96446195 1.77285938  75.26567574 -535.766461815656
0.96446195 1.70005067  75.67735221 -535.764191761018
1.11046923 1.82848015 103.00000000 -535.764145116158
0.96446195 2.04857309 108.60457420 -535.757553973564
0.96446195 1.72594208  76.72700685 -535.767615575014
0.96446195 1.75323847 108.99452610 -535.785712348177
0.96446195 1.69284944  87.07399001 -535.780833737487
0.90551307 1.68888476  87.06822575 -535.778368457061
0.93965624 1.71832898 103.00000000 -535.788764011265
0.96446195 1.69059352  82.06978035 -535.774405136672
0.96446195 1.80813111 114.32062797 -535.778537340962
0.76603184 1.79453444 103.00000000 -535.729012761062
0.96446195 1.80282350 141.44898455 -535.744371075270
0.96446195 1.79633253 123.98683896 -535.770351602051
1.40645799 1.68888476 100.69772077 -535.698705063358
0.82312657 1.68888476 116.50853334 -535.761922686156
1.08545506 1.99284293 103.00000000 -535.753042859711
1.05175279 1.68888476 126.44638232 -535.765919890472
1.20560701 1.65119220 103.00000000 -535.748585687092
0.93479944 1.57141445 103.00000000 -535.782046696328
0.96446195 1.61905230 135.70042479 -535.763272874098
0.96446195 1.77535377 112.71784237 -535.782254181910
0.98042684 1.80864398 103.00000000 -535.783228117350
0.89579934 1.70450092 103.00000000 -535.785724910366
0.96446195 1.86102987  84.90680517 -535.775305751365
0.90021606 1.68888476 132.33743635 -535.764456310530
0.74561436 1.95241156 103.00000000 -535.696141844317
0.90206326 1.68888476 136.08853589 -535.759304293499
1.32598427 1.68888476  82.91840973 -535.708049615527
1.22972459 1.68888476 106.76582552 -535.743074613037
0.95104189 1.79244798 103.00000000 -535.785181503960
1.08751011 1.68888476  81.17738022 -535.759730508240
0.71571723 1.83836238 103.00000000 -535.677133720666
1.02067603 1.74889756 103.00000000 -535.783447580337
0.72950850 1.86669527 103.00000000 -535.689661094419
1.34852352 1.68888476 109.47999619 -535.712441472273
0.96446195 1.81463109 116.74297449 -535.776028810213
0.88295488 1.58967548 103.00000000 -535.779361759515
0.80659737 1.68888476  72.24526320 -535.723834544368
0.96446195 1.69935512 100.62340731 -535.788915455442
1.07814222 1.60175638 103.00000000 -535.772563082076
1.39028025 1.68888476 112.28726097 -535.700624737378
0.83433282 2.13757494 103.00000000 -535.730965593736
0.96446195 2.04827696 121.80349006 -535.747545513073
0.99280780 2.14162832 103.00000000 -535.749277549419
0.96446195 1.81412868 132.71503072 -535.757279496363
1.12220172 1.74447787 103.00000000 -535.766914076413
0.97315550 1.79369393 103.00000000 -535.784646476378
1.17229094 1.68868372 103.00000000 -535.757151602949
0.96446195 1.92862420 118.43433042 -535.763110329061
0.96446195 1.72509186  85.21035264 -535.779577080525
0.97362383 1.68888476 109.71235313 -535.787522281108
0.78603554 1.68888476 100.37363916 -535.747530802980
0.96446195 1.91745982  94.80110524 -535.774778920890
0.95245172 1.53577005 103.00000000 -535.776016962116
0.87780413 1.71797244 103.00000000 -535.782444220558
1.02704164 1.82670680 103.00000000 -535.777724889501
0.87534421 1.60276322 103.00000000 -535.779267569671
0.96446195 1.69561642 112.24964407 -535.786575884669
0.98778595 1.96573574 103.00000000 -535.767952824933
0.96446195 1.66841541  95.61670330 -535.786874176030
0.96446195 1.65013448 103.08912827 -535.788583711502
0.94357551 1.98225352 103.00000000 -535.767104972945
0.74023332 1.74524288 103.00000000 -535.710419597823
0.96446195 1.90632896 101.18289610 -535.775513014047
0.96446195 1.80174211 113.93735609 -535.779359145414
0.84339167 1.68888476 121.11685643 -535.765479768009
0.89770306 1.68888476  78.27965555 -535.764511213482
0.96446195 1.86567167 119.32725473 -535.768779402263
0.96446195 1.95351512 109.73905212 -535.767116379954
0.96446195 2.04430926  94.21051651 -535.762035357891
1.03181650 1.86696690 103.00000000 -535.773687855476
0.96446195 1.85086589  81.49561055 -535.772970198687
1.24219386 1.82943691 103.00000000 -535.734508784952
0.85921765 1.82220320 103.00000000 -535.771904454386
0.96446195 1.70700214  85.89562586 -535.779980832830
1.09508199 1.68888476 127.07211296 -535.757763612311
1.26457032 1.67945284 103.00000000 -535.734840390763
0.72563024 1.68888476  76.38439866 -535.671287605392
0.96446195 1.97382798  80.99974737 -535.764320896071
0.96446195 1.88828120 109.57391121 -535.774072819396
0.96446195 1.57445458  92.12369748 -535.774937098100
1.10247749 1.84100423 103.00000000 -535.764672936624
1.05029018 1.68888476  67.11275946 -535.737970276610
0.96446195 1.59048318  95.32741957 -535.780425597154
1.11774660 1.99758344 103.00000000 -535.746572351624
1.14163812 1.68888476  80.11149296 -535.747900467093
0.96446195 1.88138944 104.32748862 -535.777131529358
0.96446195 1.74897503  97.15472969 -535.787148229315
1.17563838 1.68888476  81.30343492 -535.742257261615
0.86175964 1.80689102 103.00000000 -535.773813803499
1.02141005 1.68888476 109.64224478 -535.783549742635
1.06772404 1.68888476  95.46400688 -535.776515730975
0.93689309 1.81112819 103.00000000 -535.783572780570
1.00858823 1.73045884 103.00000000 -535.785457898841
1.16306489 1.70532262 103.00000000 -535.759160253870
0.99780318 1.68888476 146.89677404 -535.741862177677
0.96446195 1.82875126 131.20499954 -535.758087446316
1.12773944 1.85099307 103.00000000 -535.758857278672
0.96446195 1.78523364  92.78052716 -535.784144466431
0.95456893 2.04792944 103.00000000 -535.760190329173
0.82279729 1.64208480 103.00000000 -535.766046962923
1.22284478 1.70066965 103.00000000 -535.745191226166
0.96446195 1.77089985 100.00156094 -535.786550290263
0.92020840 1.68888476 145.90632203 -535.745263533478
1.25990429 1.68888476  82.30044684 -535.723759819891
0.96446195 1.89543330 126.71025496 -535.757504505152
1.30801081 1.68888476 104.93504469 -535.723847954489
0.99753080 1.68888476 103.01006885 -535.787244526879
0.95017619 1.68888476 126.00249925 -535.775214655428
0.96446195 1.80353776 105.21984383 -535.783698425485
0.97587038 1.72287438 103.00000000 -535.788127255114
0.96446195 1.99972040 117.18625394 -535.756708189335
0.89803370 1.68888476  71.96057574 -535.751219948352
0.99793337 1.97128592 103.00000000 -535.766672717901
0.96446195 1.90854602  88.73968755 -535.774026147588
0.96446195 1.59920174 139.89437202 -535.756786532792
1.26098044 1.68888476  98.25934988 -535.735241015341
1.02122600 1.68888476 118.62927947 -535.778009183065
0.94662797 1.68888476  95.90875892 -535.787666336796
0.82060293 1.68888476 122.54039993 -535.755663717032
0.96446195 1.80634830 138.83237106 -535.748448990834
0.96446195 1.95448628  95.01776688 -535.771202629943
1.00429987 1.85992827 103.00000000 -535.777265626584
0.92631684 1.81566267 103.00000000 -535.782740559567
0.96446195 1.88306371  91.45963907 -535.777135209241
1.12163924 1.68888476  96.99461340 -535.767135744983
0.96446195 1.60156840  77.29581527 -535.755074510083
0.96446195 1.56128649 125.66348051 -535.771909740724
0.96446195 1.97142461 115.23627971 -535.761335322184
1.00676816 1.68888476 103.66840995 -535.786395182477
0.96446195 1.64079359 135.10379206 -535.764203125863
0.95407837 2.07817327 103.00000000 -535.756992319935
0.95058570 1.69383403 103.00000000 -535.789324460413
1.09877837 1.68888476  62.47064711 -535.720090760975
0.79920463 1.68888476 128.39686301 -535.738911815333
0.96446195 1.61937054  96.32481370 -535.784345550647
0.96446195 1.67507184  85.76828555 -535.778505877225
1.01735141 1.68888476  79.70070982 -535.767324487351
0.96446195 1.67443426  95.46230550 -535.786975580298
0.96446195 1.64224324 109.01634364 -535.787806587527
0.90919622 1.68888476  94.45980687 -535.784979132888
0.90388776 1.68888476  85.82154377 -535.776732409719
0.82590593 1.68888476 103.94917192 -535.767921817067
0.96891811 1.68888476  76.48406022 -535.764801479468
0.79271227 1.85115568 103.00000000 -535.741828419815
1.29763920 1.68888476 109.43143092 -535.725363355971
1.45390209 1.56888991 103.00000000 -535.684381184888
1.06103877 1.67321883 103.00000000 -535.779221695072
1.07314580 1.68888476 112.79370349 -535.774518939353
0.96446195 1.63902859  98.97600729 -535.787116083793
1.08807359 1.70093747 103.00000000 -535.774624947821
1.21248468 1.59753973 103.00000000 -535.742923856557
0.96446195 1.62841703  89.57631886 -535.779349205369
0.96446195 1.69689482  70.67313026 -535.753175024304
0.91125094 1.68888476 114.34173310 -535.784116607301
0.96446195 1.69539628 105.42988367 -535.788915319462
0.86965395 1.68888476 116.25474168 -535.776541356573
0.89519293 1.68888476 108.64830990 -535.784992187260
0.84580345 1.61806484 103.00000000 -535.773059510957
0.96446195 1.54396843  93.33058669 -535.770239446089
0.98606814 1.47481901 103.00000000 -535.757306013970
0.92222192 1.68888476 110.20395875 -535.787081239665
0.96446195 1.78176457 122.12192271 -535.773645643221
0.96446195 1.80261758 108.61553156 -535.782466601680
0.96446195 1.45176905  75.86315316 -535.698507582463
0.86551721 1.79744992 103.00000000 -535.775467382865
1.06944173 1.87678448 103.00000000 -535.767365177993
0.97772624 1.68831483 103.00000000 -535.788603856604
1.15262349 1.69221343 103.00000000 -535.761568561353
1.01636459 1.68888476 100.20483855 -535.785166092573
0.99107068 1.54572603 103.00000000 -535.776220029431
1.12910909 1.68888476 107.29342782 -535.766040927384
0.92482681 1.52729846 103.00000000 -535.773648944239
0.82479875 1.68030477 103.00000000 -535.767521825415
0.96446195 1.82049721 144.52113021 -535.737324651871
1.16711155 1.68888476  84.22424322 -535.747753542776
0.96446195 1.72990193  80.34972946 -535.773499302378
0.99757175 1.68888476  68.98682699 -535.747157395734
1.02612688 1.57906669 103.00000000 -535.777927555046
0.96446195 1.69863757  99.06940651 -535.788633710453
0.97013095 1.65946551 103.00000000 -535.788650025830
1.07953658 1.68888476  86.51600769 -535.767717491189
1.03315382 1.68888476  81.14705787 -535.767784963440
1.20440190 1.68888476  76.05168188 -535.728248703315
0.98411626 1.68888476 113.63348754 -535.785023417523
1.20572787 1.68888476 119.07910210 -535.742059606669
0.96446195 1.78923205  89.86502010 -535.782450360688
0.95552135 1.68888476  74.36859218 -535.760688549175
1.01253252 2.27949981 103.00000000 -535.735294203830
1.05828484 1.65241900 103.00000000 -535.779166083945
1.02343162 1.68888476 119.00933313 -535.777423163581
1.02781782 1.68888476  87.63181029 -535.776484878480
0.96446195 1.61741520 118.96216829 -535.781814471197
0.96446195 1.67073913 141.54818170 -535.753757682790
0.96446195 1.82395223  96.97686962 -535.782938153528
1.47781642 1.68888476 117.10881584 -535.675776825787
0.99805713 1.68888476 138.45121477 -535.755776995313
0.83540300 1.68888476 137.11078035 -535.742931803337
1.12358526 1.66610795 103.00000000 -535.767512879709
0.92317800 1.68888476 101.71703728 -535.788498878489
1.08830454 1.68888476  99.57306769 -535.774310801801
1.25519812 1.76106748 103.00000000 -535.735589763558
1.01237150 1.66313115 103.00000000 -535.785589014738
1.33150260 1.64039673 103.00000000 -535.716264914353
1.06396325 1.68888476  83.98562973 -535.767349164331
0.98526705 1.43138019 103.00000000 -535.737790100776
1.07303859 2.02476898 103.00000000 -535.751782673706
0.89580383 1.80198179 103.00000000 -535.780827978871
0.95904272 1.68888476  67.04408790 -535.742935673171
1.14861156 1.68888476 113.29170131 -535.759336633876
0.96446195 1.56577572  78.56963368 -535.750172693332
1.26072216 1.68888476 103.63255795 -535.735862595644
1.31627158 1.74447949 103.00000000 -535.721009850519
0.92156481 1.68304414 103.00000000 -535.788482972106
0.91242423 1.84630102 103.00000000 -535.779089860775
1.31369524 1.68888476 108.26208065 -535.721694267656
0.85599273 1.68888476  85.77678535 -535.767499447536
1.23333540 1.79828771 103.00000000 -535.738861882083
1.00630919 1.64018890 103.00000000 -535.785426887208
1.05438446 1.51480066 103.00000000 -535.761483234299
0.96446195 2.04846870  88.16586848 -535.760899533686
0.96446195 1.83906808 106.02827274 -535.780483428411
0.81514592 1.68888476 133.09736646 -535.740616395700
0.83764888 1.68888476 138.22551862 -535.742033117841
0.95567149 1.68888476 142.76056082 -535.751174977939
0.99534847 1.68888476  66.24637855 -535.740101601183
0.90405569 2.04896421 103.00000000 -535.757082989626
1.36187619 1.67426869 103.00000000 -535.709984306061
0.99780770 1.68888476 104.49919764 -535.787159782701
1.50246998 1.68888476 109.82868375 -535.673035477984
0.96446195 1.70995618  71.68534881 -535.756679821897
1.12218988 1.81622840 103.00000000 -535.762749759641
1.29287525 1.67209761 103.00000000 -535.727581785506
0.96446195 1.82963412 108.52690492 -535.780239895010
1.18641159 1.68888476 122.64817019 -535.743244966045
0.88262507 1.68888476 149.18368717 -535.735614411213
0.96446195 1.59936745 101.84519695 -535.785001988767
0.96446195 1.64576034 129.14071259 -535.772089619691
0.96446195 1.59332371 107.33918400 -535.785068144730
0.83424822 2.04425584 103.00000000 -535.740819423689
1.26512443 1.78233714 103.00000000 -535.732032584683
1.03651089 1.68888476 134.35155951 -535.757620918424
0.98245887 1.68888476  61.78626425 -535.727115490679
0.96446195 1.86090299  66.84076742 -535.751748077972
0.82718919 1.67995928 103.00000000 -535.768477157000
0.86328462 1.84350358 103.00000000 -535.771082624307
1.19930214 1.68888476  99.51693463 -535.750556709805
1.23985615 1.68888476  89.74408314 -535.736036148961
1.00045781 1.70214521 103.00000000 -535.786888305849
0.96446195 1.69008639 106.96604373 -535.788692911591
0.96446195 1.70739722  61.25730304 -535.728132919820
0.98546350 2.04363665 103.00000000 -535.759794997726
0.88271455 1.68888476  83.48617159 -535.770535052193
1.05743527 1.68888476 108.23451633 -535.779068262704
0.89389486 1.89034119 103.00000000 -535.772644795241
0.96446195 1.95787937 105.79213754 -535.768681887854
1.05574557 1.68888476 102.92722639 -535.780153589276
0.80971948 2.07987975 103.00000000 -535.726279062816
0.92443214 1.68888476 114.48715916 -535.784985056599
0.96446195 1.98905659 117.60836159 -535.757462870193
1.23502389 1.68888476  85.02140966 -535.732864304865
1.12060022 1.89399804 103.00000000 -535.756433162919
0.96446195 1.60195059 115.23890163 -535.783394245545
0.79314788 1.68888476 104.92712044 -535.752023809098
0.78798886 1.68888476 148.42297181 -535.702953639367
1.02166299 1.68888476 112.17976664 -535.782372978063
0.96728846 1.63067546 103.00000000 -535.787604415269
1.07641583 1.68888476 136.10069806 -535.748768248867
0.79433285 2.05324915 103.00000000 -535.720885646913
1.20313948 1.69452971 103.00000000 -535.749952078855
0.90000292 1.80010502 103.00000000 -535.781529437359
1.32596537 1.51287789 103.00000000 -535.700471016720
1.45853863 1.55888254 103.00000000 -535.682746531103
0.99965001 1.65340057 103.00000000 -535.786562663909
0.96446195 1.66628105  98.66450362 -535.788141700683
1.07270484 1.73772353 103.00000000 -535.776453276100
0.88601535 1.75900668 103.00000000 -535.782155178769
1.16188080 1.68888476 131.29342810 -535.738466854610
1.17990130 1.79954728 103.00000000 -535.751413998553
1.26437367 1.49279063 103.00000000 -535.708195100214
1.05219706 1.97324425 103.00000000 -535.760384707610
0.99914352 1.84122148 103.00000000 -535.779346761985
0.82348674 1.95478784 103.00000000 -535.746406737287
0.96446195 2.01243427 124.48195258 -535.748294213047
0.88839426 1.48792252 103.00000000 -535.759419874203
1.09989442 1.68888476 109.62687346 -535.771151846289
1.46101261 1.68888476 108.34203319 -535.684141980475
0.96446195 1.88472996 135.61273723 -535.746111620254
1.01718536 1.68888476  56.09570109 -535.706218557146
0.98792328 2.14560736 103.00000000 -535.749184545633
0.97723251 1.69887113 103.00000000 -535.788555650293
1.26182501 1.68888476  88.25662178 -535.729414441643
0.86098773 1.67748552 103.00000000 -535.779290164434
1.09002047 1.68888476 130.91368382 -535.753782289181
0.96446195 1.76156673 105.71574683 -535.786388038439
0.96446195 1.89007820  95.60867365 -535.777375805991
1.06121979 1.53731147 103.00000000 -535.765722287538
0.84468289 1.68888476  70.45496646 -535.735071346093
1.26159856 1.78701524 103.00000000 -535.732633073166
0.96446195 1.72891701 104.61227303 -535.788183791648
0.98223879 1.68888476 109.13380589 -535.787274065651
0.75013377 1.83667536 103.00000000 -535.712427242988
1.12171581 1.68888476  83.70791709 -535.756689732615
0.96446195 1.85690574  78.58764502 -535.769637613229
1.01242691 1.68888476  74.87086932 -535.759177363612
1.31153830 1.75229929 103.00000000 -535.721904362050
0.96446195 1.47289361  96.57249191 -535.752305486058
0.96446195 1.48364727  91.40971687 -535.749632501559
0.96446195 1.93755577  80.98983577 -535.767103137288
0.86692279 1.92672954 103.00000000 -535.763669160237
0.96446195 1.96771878  98.27576206 -535.769730393954
0.96446195 1.74373387  67.97712884 -535.750698139388
1.09248972 1.68888476 115.87564102 -535.769105642439
1.36920056 1.71419572 103.00000000 -535.708373473573
1.25404758 1.73928089 103.00000000 -535.736749205253
0.96446195 1.80112225 100.26871852 -535.784692649245
1.01509368 1.67091999 103.00000000 -535.785438712218
1.51929600 1.65787686 103.00000000 -535.674355783058
0.96446195 1.77379974 124.71406111 -535.771381606790
0.96446195 1.67031315  61.83126557 -535.724009881672
0.96446195 1.75458264 124.76749725 -535.772775759925
0.85774764 1.55775145 103.00000000 -535.769663790677
0.99619851 2.04193090 103.00000000 -535.759294231418
0.93934314 1.82441507 103.00000000 -535.782587579639
0.89819761 1.68176463 103.00000000 -535.786256582226
0.88752179 2.02012050 103.00000000 -535.757763111242
1.26295374 1.68888476 120.77317007 -535.726615701680
0.96446195 1.57883541 111.50218669 -535.782904296057
1.13757876 1.68888476 114.32876971 -535.761092991873
0.81039982 1.68888476 108.47536748 -535.760394001290
0.96446195 2.14538463 117.99896275 -535.741784892713
0.96446195 2.03311603 101.35295181 -535.762199240896
0.96446195 2.00313881 119.19341107 -535.754559420828
0.96446195 1.72049222 116.13172144 -535.783174231856
0.96446195 1.77523909  99.20799784 -535.786272810247
0.76285922 1.68888476 133.51303976 -535.708746164587
0.97501152 1.68888476 111.67145175 -535.786601284723
1.11869459 1.68888476 148.43841695 -535.720083363015
1.13503111 1.68888476 105.81038184 -535.765113423205
0.96446195 1.63414596 124.41907260 -535.777377985459
0.96446195 1.68253486  96.30706398 -535.787575706701
1.05691082 1.48104087 103.00000000 -535.750369076604
0.96446195 1.98485650 113.12652562 -535.761505067744
1.44784138 1.68888476 109.57858797 -535.687139551610
0.96446195 1.87311132 129.75172419 -535.755781066372
0.99719282 1.45791869 103.00000000 -535.749550671274
1.10433493 1.68888476 109.30462852 -535.770416655962
0.72451313 1.80295756 103.00000000 -535.690320340881
1.03947351 1.47866585 103.00000000 -535.752391569285
1.07937662 1.80258826 103.00000000 -535.771792295019
1.46743546 1.60258233 103.00000000 -535.683730009369
0.96446195 1.73968399 127.19252168 -535.770886157899
0.96446195 1.72066809 109.79502847 -535.786952818832
0.76551601 1.74964649 103.00000000 -535.731666703338
0.98088807 1.58840701 103.00000000 -535.783369705364
0.88236609 1.68888476  55.13930988 -535.692005157948
1.34591273 1.78945944 103.00000000 -535.711395209661
0.71199303 1.80683445 103.00000000 -535.675564779355
0.96446195 1.52397970  90.25456039 -535.761221678862
0.96446195 1.70295787 124.72303249 -535.775866814028
0.83054555 1.68888476  77.36215701 -535.745753997614
1.00692121 1.68888476  93.73525183 -535.783655518402
0.96446195 1.78034709  71.08887825 -535.759103534279
0.92483566 1.63325913 103.00000000 -535.787441197923
1.29972301 1.68888476  83.58325966 -535.715384000370
0.89785519 1.68888476 100.82686590 -535.786003057670
0.68782040 1.68888476 108.60489548 -535.649145416262
0.94188867 1.68888476  84.71838051 -535.777931023996
1.12340839 1.68888476 110.92876770 -535.765923061265
0.96446195 1.51733068 113.81482151 -535.772426808226
0.99551762 1.68888476  87.10408383 -535.779132920124
1.04634305 1.68888476 118.03492873 -535.775180244285
1.33240978 1.68888476  88.16272656 -535.711597114085
0.96446195 1.61484687  81.82902726 -535.766486922699
0.98469742 2.08932696 103.00000000 -535.755044561629
0.96446195 1.64962751 118.19993867 -535.783150869532
1.19394698 1.68888476  76.20874375 -535.730821589870
0.87204708 1.68888476 135.24313568 -535.755802560207
1.27642551 1.47804404 103.00000000 -535.701824675440
1.55388969 1.59558898 103.00000000 -535.669657650583
0.96446195 1.58615382  94.98534764 -535.779547359416
0.94678736 1.88252121 103.00000000 -535.777499874058
1.19119411 1.83069224 103.00000000 -535.746571535767
0.76512568 1.68888476 108.48746558 -535.732832666624
1.08651010 1.68888476  99.63712365 -535.774649438414
0.93543142 1.91271560 103.00000000 -535.774186949120
1.19484992 1.68888476 131.32176679 -535.730884332314
0.96446195 1.97499938  99.15215971 -535.768849829855
1.07757265 1.68888476 143.65326422 -535.736365078398
0.86002811 1.68888476  77.19145842 -535.754947799502
1.00694046 1.68888476 109.05052532 -535.785327517644
1.22624283 1.68888476 102.76532117 -535.744387636704
1.20228197 1.68888476 128.74629246 -535.732531538878
0.96446195 2.03127417 121.30771198 -535.749695834966
0.79023347 1.46343846 103.00000000 -535.717358825797
1.02492325 1.68888476 102.54783797 -535.784414423114
0.82261984 1.64950616 103.00000000 -535.766220235163
1.35293206 1.57476501 103.00000000 -535.703549373173
0.92203621 1.68888476  75.32935760 -535.761371341948
0.96446195 1.98208932  84.38906221 -535.765674615748
0.96446195 1.91754334 119.88517536 -535.762877756708
0.73859226 1.68888476  63.71093519 -535.650205872438
0.91054512 1.68888476  76.34349602 -535.762380859693
1.15153768 1.56705600 103.00000000 -535.753213619510
1.30389179 1.69746648 103.00000000 -535.725046455700
0.98171363 1.57312628 103.00000000 -535.781377210354
1.50700680 1.68888476 109.93658776 -535.671814985398
0.82685014 1.65182314 103.00000000 -535.767994025776
1.24377018 1.65919301 103.00000000 -535.739557949926
1.13525888 1.68888476 110.63419905 -535.763574510178
1.07478975 1.68888476  77.02182418 -535.755332828413
0.96446195 1.61222436 123.63466373 -535.777573983470
0.92961514 2.09222747 103.00000000 -535.754794573668
0.96446195 2.16052539 109.42348528 -535.745856573661
1.17781439 1.75584878 103.00000000 -535.754340261508
1.12970665 1.68888476 109.20806195 -535.765320205330
0.99486500 1.68888476 116.23256262 -535.782524900618
0.94417770 1.68888476  88.76703394 -535.782521140726
1.23504977 1.68888476 111.71984997 -535.739976294567
0.96446195 1.76192782  96.53468402 -535.786486402194
0.96446195 1.89276009  90.92126970 -535.776159480684
1.17016933 1.71026381 103.00000000 -535.757489463884
0.79467897 1.77853757 103.00000000 -535.749074124356
0.96446195 1.89682204 109.75960419 -535.773092188137
0.96446195 1.78339539 112.81368209 -535.781596505677
1.24319277 1.50540216 103.00000000 -535.715564976710
0.96446195 1.49226043  93.19195841 -535.755347118687
0.88293247 1.68888476  99.03567292 -535.783346214531
1.14621531 1.68888476 139.52698110 -535.729563668579
0.96446195 1.61201433 103.99679347 -535.786577249052
0.95468824 1.68888476 130.68134127 -535.769349844691
0.88459580 1.68888476 113.00037718 -535.781489873488
0.96446195 1.75970423  78.92331207 -535.771965260673
0.96446195 1.74970259 100.77724579 -535.787605635364
0.96446195 1.78993475 106.51376880 -535.784289551345
0.96446195 1.99548697 107.92491208 -535.763605475069
1.16444671 1.68888476 104.69128691 -535.758826600586
1.29678077 1.68888476  86.30409711 -535.718924530588
0.96446195 2.17431172 114.80492904 -535.741465389277
1.03643475 2.14412944 103.00000000 -535.744849331164
0.68473591 1.68888476 132.00311312 -535.624506791846
1.09189917 1.88613425 103.00000000 -535.762638691898
1.03445064 1.72843012 103.00000000 -535.782541705819
0.96961179 1.68888476 100.70626586 -535.788788519802
0.97949607 1.68888476 106.88161469 -535.788082450405
1.01512018 1.68888476  94.83355820 -535.783440298435
0.92708169 2.07202748 103.00000000 -535.756761513182
1.15365079 1.63196458 103.00000000 -535.759676093494
0.91403477 1.68888476  83.07752595 -535.774167770305
0.96446195 1.81285784  88.13460090 -535.780262495297
0.96446195 1.53252887 101.81958684 -535.774525230765
0.96540094 1.68045628 103.00000000 -535.789112349289
0.95760993 2.20688201 103.00000000 -535.744297144318
0.94922495 1.68888476 104.56931535 -535.789297445041
1.04562055 1.86004964 103.00000000 -535.772489281844
0.96446195 1.61322000 110.52883875 -535.786073866134
0.96446195 1.71137944  66.77774280 -535.744879087719
1.14049940 1.68888476 120.62437941 -535.755515119887
0.82194825 1.68888476  78.02768836 -535.743551690375
1.18286607 1.68888476 118.39778554 -535.748003655034
0.96446195 1.61989539 109.13684979 -535.786823196861
0.96446195 1.81072920 114.72192694 -535.778010336796
1.18553127 1.58366624 103.00000000 -535.747743902936
1.32233190 1.68888476  90.85531403 -535.716234887172
0.94739416 1.67691111 103.00000000 -535.789333379375
0.86151162 1.68888476  87.55704028 -535.771033673944
1.00804138 1.68888476  78.35205805 -535.765969652943
0.89765733 1.66217634 103.00000000 -535.786000266627
0.96446195 1.54990379  89.84228436 -535.767211416888
0.96446195 1.74282410  66.42199787 -535.746833699783
0.94031718 1.68888476 113.08987240 -535.786412863207
0.67888821 1.69326519 103.00000000 -535.636131461984
0.74169642 1.68888476 142.91009942 -535.676897643469
0.96446195 1.73013407 145.50854594 -535.743566971853
0.96446195 1.71176006  87.88867834 -535.782136964884
0.96446195 1.79762817  75.34017132 -535.766714338042
0.84967277 1.43620774 103.00000000 -535.730709690170
0.96446195 1.94512407  93.41312658 -535.771984478000
0.70675829 1.68888476 132.44763238 -535.654278328463
1.07604324 1.68888476 128.30810222 -535.759686672898
0.96446195 1.86454813 116.30419465 -535.771662391048
0.96446195 1.55882858 109.38484004 -535.780758527430
1.08442268 1.68888476  90.07667593 -535.770208437987
0.96446195 1.71984035 120.30614075 -535.779644103676
0.86833686 1.77804508 103.00000000 -535.777496538137
0.92719384 2.13685543 103.00000000 -535.750085964560
0.96446195 1.82994654  82.80594542 -535.775196225089
0.96446195 1.49731116 107.88848541 -535.767730962693
0.96446195 1.63717217  57.94344421 -535.701764809777
1.06784118 1.47547184 103.00000000 -535.746138204396
1.03667274 1.70145627 103.00000000 -535.782835892262
1.04886245 1.68888476  70.01019780 -535.745026149702
1.20672951 1.68888476 114.24704796 -535.745412166609
1.00962093 1.58219180 103.00000000 -535.780229203838
0.96446195 1.45793680 109.83791772 -535.754746834748
0.94909996 1.81681772 103.00000000 -535.783363627066
1.12223731 1.68888476  86.08624879 -535.759297877017
0.97891338 1.68888476 113.93255357 -535.785155226756
0.98650032 1.68888476  88.93873036 -535.781603625921
0.90094246 1.68888476  74.85675828 -535.758179724538
0.94260630 1.68888476  97.23211394 -535.788178378590
1.25030411 1.61433678 103.00000000 -535.735194292467
1.17427150 1.68888476 125.99180858 -535.742385503406
0.96446195 1.69655907 102.38050207 -535.789083182387
0.96446195 1.72699898 121.12233386 -535.778472928327
0.96446195 1.99256669  88.65077238 -535.766420803035
1.12654958 1.69143785 103.00000000 -535.767154539138
0.92621552 1.84971912 103.00000000 -535.779838831244
0.95745945 1.98445482 103.00000000 -535.766988925718
0.96446195 1.86760330  77.89074191 -535.768372737035
1.10190522 1.86806760 103.00000000 -535.762449722539
1.13241962 1.79233598 103.00000000 -535.762298207213
0.89133669 1.84064458 103.00000000 -535.776980303044
0.96446195 1.70503582 110.05531596 -535.787372344549
0.82680796 1.78320824 103.00000000 -535.764234891865
1.18906348 1.68888476  99.82661203 -535.753021688232
1.04201260 1.78075509 103.00000000 -535.779057825009
1.53002435 1.77357153 103.00000000 -535.666924414265
0.96446195 1.90295033  84.06827836 -535.771887631439
0.92230448 1.82847971 103.00000000 -535.781440520116
1.14236015 1.61078234 103.00000000 -535.760601501605
1.08008947 1.85992539 103.00000000 -535.767106278182
0.96446195 1.83735090 108.76664317 -535.779430672798
0.96446195 1.72486428  59.43940575 -535.724585271341
1.04624929 1.69739362 103.00000000 -535.781538416844
0.96446195 1.90787215 101.37478975 -535.775320243161
0.96446195 1.64861409 111.87344480 -535.786963864224
1.03724994 2.10576688 103.00000000 -535.748568748000
1.17621773 1.63765184 103.00000000 -535.754879036232
0.96446195 2.05900998 112.11533870 -535.754350706677
0.87919880 1.68888476 110.78119056 -535.781623005781
0.96412263 1.58660182 103.00000000 -535.783937640495
0.90581919 1.68888476 102.72834224 -535.787121760994
1.13433716 1.68888476  96.49698435 -535.764315874434
1.11010967 1.68888476  98.44934885 -535.769904300469
1.08679438 2.11760347 103.00000000 -535.739935150542
1.08611798 1.68888476  63.75241170 -535.725075478821
0.98811007 1.68888476 121.86709729 -535.778195861793
0.98902819 1.70560176 103.00000000 -535.787743196054
0.96446195 2.17935455 119.80105791 -535.737534257495
0.96446195 1.89017303 108.33223017 -535.774557793277
0.96446195 1.79189008 100.04869604 -535.785309495806
1.40351082 1.68888476  92.66382843 -535.696569259345
0.99848838 1.79845409 103.00000000 -535.782744097281
1.01878722 1.68888476 126.84573996 -535.769865904294
1.07459714 1.84216124 103.00000000 -535.769564258709
0.85249419 1.62205597 103.00000000 -535.775295172357
0.96446195 1.85206389 143.65885907 -535.735856484559
0.96446195 1.54799143 134.75154814 -535.760162997056
0.76822683 1.68888476 117.46060494 -535.730361912198
0.96446195 1.72444112 103.20606282 -535.788498924749
0.99987487 1.68888476  74.47850369 -535.759384968351
1.00463704 1.68062023 103.00000000 -535.786598725494
1.19673052 1.68888476  87.62382530 -535.744545038089
0.96446195 1.93655078 122.72030498 -535.757935557659
1.36999468 1.68888476 114.95469293 -535.704258342988
0.84848609 1.63389818 103.00000000 -535.774790324424
0.90599085 1.46140686 103.00000000 -535.752069045413
0.96446195 1.89533342 125.79771978 -535.758639358773
1.11170528 1.68888476 107.67934888 -535.769492649281
1.34589068 1.68888476  89.56888590 -535.709295226397
0.87713349 1.68888476 127.04249122 -535.767701554288
1.05163338 1.68888476  95.18476367 -535.778908197206
0.96446195 1.61947375 140.59197354 -535.756143078164
0.96446195 1.64434072 125.12933864 -535.776717101620
1.13445689 1.63378895 103.00000000 -535.763967097755
1.07651699 1.68888476  82.00137447 -535.762738085834
1.25333330 1.78616953 103.00000000 -535.734721923624
0.87802843 1.68888476 109.61425027 -535.781868229582
1.08451071 1.85646757 103.00000000 -535.766641056288
1.13133896 1.67747940 103.00000000 -535.766084524352
1.06556981 1.68888476 121.38153535 -535.769197320839
0.96446195 1.77344167 133.08971680 -535.760314335775
0.83376070 1.68888476  99.57969103 -535.770452502143
0.96446195 1.51771113 116.63253236 -535.771515189891
0.99593678 1.51680552 103.00000000 -535.769436920164
0.90868082 2.00156239 103.00000000 -535.762756067873
1.05414418 1.68888476  93.94619394 -535.777875177267
0.96446195 1.59301542 129.18693825 -535.770738232955
1.06964812 1.68888476 104.58515432 -535.777830167111
0.88956023 1.76569518 103.00000000 -535.782349924950
0.92791619 1.68888476 109.70289256 -535.787590777538
0.96446195 1.57193490 138.06073185 -535.758002788892
1.48441239 1.70846417 103.00000000 -535.679257430916
0.96446195 1.87347481  81.34676414 -535.771629703133
1.13224827 1.98359086 103.00000000 -535.745121187608
0.96446195 1.67942134  74.27739270 -535.759557723968
0.96446195 1.80018490 121.73269302 -535.772511017470
1.42054179 1.65448823 103.00000000 -535.693315104933
0.91549842 1.68888476 124.63068640 -535.775523580497
1.21745975 1.68888476 117.68008580 -535.740405522247
0.93125067 1.52469471 103.00000000 -535.773330287205
1.20551955 1.55196415 103.00000000 -535.737204784166
0.79687002 1.68888476 152.21635974 -535.701848784532
0.86109584 1.68888476 106.39046391 -535.779023585951
0.90705656 1.68888476  99.28222975 -535.786757428351
0.96446195 1.60286644 107.65300938 -535.785891680062
0.96446195 1.79536341  79.57980884 -535.772703160426
0.96446195 1.86923062  89.02850415 -535.777243900966
1.10973885 1.68888476 111.85080001 -535.768242243112
0.82912640 1.95618218 103.00000000 -535.748567066337
1.18276080 1.68888476 118.70294410 -535.747772904644
0.82361064 1.73688562 103.00000000 -535.765640013945
0.96446195 1.80012682 110.12078604 -535.781905237755
1.13725617 1.68888476  65.77221504 -535.722398951859
1.20695272 1.68888476 123.32142037 -535.737719951900
0.96446195 2.22350636  86.65032140 -535.744260139894
1.10674786 1.95444840 103.00000000 -535.753150803093
0.80482687 1.68888476 133.59380651 -535.735022024880
0.93535877 2.09199386 103.00000000 -535.755111550092
0.95208293 1.68888476 137.71099498 -535.759263392527
0.96446195 1.60050544 100.01007827 -535.784460073535
0.86293383 1.91843779 103.00000000 -535.763561438351
0.96446195 1.53833751 128.06219782 -535.766613788194
0.96446195 1.60541249  58.09329492 -535.693353250791
1.19757022 1.80263478 103.00000000 -535.747115887529
0.96446195 1.76506566 124.26591041 -535.772580072862
0.96446195 1.85547200 110.88065852 -535.776548797660
0.99187245 1.68888476  85.89964491 -535.778059656843
0.94814726 1.66737313 103.00000000 -535.789229527441
1.18891749 1.68888476 109.75921092 -535.751913618892
0.88201163 1.64583640 103.00000000 -535.783174511161
1.17003312 1.55727363 103.00000000 -535.747205532390
0.96446195 1.60180264  91.69355075 -535.778587122623
0.96446195 1.57982887 117.87489797 -535.780077424891
1.15521930 1.68888476 122.73178436 -535.750238518972
1.02408287 1.53988003 103.00000000 -535.771682649998
1.06166205 1.68888476 133.53592946 -535.755042387705
1.10154522 1.83491565 103.00000000 -535.765345303330
0.96446195 1.70293918  62.96851716 -535.732936115865
0.99464972 1.65854487 103.00000000 -535.787133551327
0.80966531 1.67305368 103.00000000 -535.760818531668
0.83012804 1.71477944 103.00000000 -535.769062866894
0.89787936 1.68888476 132.35933482 -535.764141942471
1.12827346 1.68888476 101.24737613 -535.766723024987
1.11069434 1.49542363 103.00000000 -535.744563101098
0.77695441 1.66523408 103.00000000 -535.742007359790
0.96446195 1.96280260 127.31109344 -535.749937170994
0.92952275 1.62514346 103.00000000 -535.787206352322
1.02605921 1.68888476 110.45499371 -535.782661430400
1.10735148 1.70034079 103.00000000 -535.770983506888
0.96446195 1.87630273 103.12445382 -535.777980239632
0.96480764 1.48120843 103.00000000 -535.760835649941
0.96446195 1.62583713 113.75434737 -535.785432318782
1.02322956 1.68888476 118.20984879 -535.778120602214
0.94784180 1.88382915 103.00000000 -535.777385842966
0.96446195 1.85263851 137.17496345 -535.746764725391
0.95120904 1.82663250 103.00000000 -535.782580803334
0.80347613 1.68888476  92.07785292 -535.753401923526
1.00788217 1.57329491 103.00000000 -535.779227298507
0.93775425 1.68888476  82.24110180 -535.774410704440
1.23807889 1.68888476 104.20293495 -535.741429706786
1.04916275 1.68888476 102.95286985 -535.781150228150
0.96446195 1.79638654  97.55789935 -535.784869148308
0.96446195 1.70810911  85.35777655 -535.779402746915
0.96446195 1.82878018  79.90477287 -535.772228800542
0.96446195 1.83293029  80.00919185 -535.772197191435
1.09938985 1.68888476 123.07433518 -535.761456731747
0.87481585 1.68888476 103.55375371 -535.782400341556
0.96446195 1.81958225 122.43092912 -535.770017159934
0.90231321 1.68702371 103.00000000 -535.786748321445
0.97013558 1.68888476 125.66306678 -535.775155103909
0.92098840 1.55808027 103.00000000 -535.779397261339
0.90990751 1.60510396 103.00000000 -535.784395787240
0.89203417 2.04443712 103.00000000 -535.755872342296
1.03044163 1.68888476  87.42983550 -535.775960203070
1.13750082 1.72383617 103.00000000 -535.764403611351
1.13582141 1.68888476  73.99684151 -535.739208699901
0.96446195 2.09003578  86.45035895 -535.756463720850
0.82990468 1.68888476 115.05841893 -535.765600875887
0.96446195 1.72277198 108.61108022 -535.787348332900
0.96446195 1.42339957 116.01704163 -535.739003289480
1.30789198 1.81292626 103.00000000 -535.719430493927
1.07157079 1.68888476 129.36888079 -535.759101654916
0.95283071 1.68888476  90.20975154 -535.783899921456
0.96446195 1.93280835 115.50485364 -535.765243578293
0.96446195 1.62862722  78.35143224 -535.761869607832
0.93666589 1.68888476  90.76011059 -535.784138347339
1.26959530 1.64522099 103.00000000 -535.732507391534
1.08259055 2.00186803 103.00000000 -535.752591540899
1.00313371 1.68888476  66.28779036 -535.739826227349
0.96446195 2.12783427 105.33227374 -535.750943932169
0.96446195 1.71357652 143.10698439 -535.748875162084
1.06192263 2.03973287 103.00000000 -535.751962433783
0.96446195 1.93494422 127.61888414 -535.752351793664
0.84361890 1.69430293 103.00000000 -535.774239695023
0.84797738 1.70117844 103.00000000 -535.775493525271
0.96446195 1.70779343 119.67144650 -535.780793656148
0.96446195 2.03078551 122.79691425 -535.748265999847
1.10577518 1.68888476 108.85586919 -535.770295867000
0.96446195 1.92505993  96.67766056 -535.774134017359
1.09096235 1.68888476  59.89608213 -535.713871694204
0.96446195 1.57360008  70.56214545 -535.730734593832
0.93479225 1.68888476  76.08930079 -535.763689512846
0.96446195 1.73295471 118.49456410 -535.780596567923
0.84933912 1.77605561 103.00000000 -535.772603979330
0.87943636 1.68888476 115.47725798 -535.779055434111
0.91992683 1.68888476 100.79413161 -535.788172777762
1.06960801 2.04788727 103.00000000 -535.749914938789
0.96446195 1.59822232 103.39685918 -535.785268355437
0.87524337 1.85475531 103.00000000 -535.772781634286
1.19471953 1.68888476 117.19126835 -535.746202032500
0.92666516 1.68888476 139.87665140 -535.755431141911
0.77999841 1.68675634 103.00000000 -535.744028289307
0.96446195 1.51634616  98.75516433 -535.768635864627
1.06922569 1.68888476  86.24150884 -535.769140482006
0.96446195 1.53673810 110.96638235 -535.776918749384
1.18828044 1.77081449 103.00000000 -535.751196429504
0.96446195 1.56822583  73.78311990 -535.738659491462
0.96446195 1.63187267 102.34918551 -535.787662778357
0.96446195 1.58600449 109.13181784 -535.784162654690
0.96446195 1.68170939 111.30310943 -535.787300356998
1.09780835 1.70672681 103.00000000 -535.772746899274
1.04461365 1.77743891 103.00000000 -535.778894779675
0.96446195 1.96240096 102.46064690 -535.769419090808
1.26979066 1.68888476  93.69581626 -535.731228487456
1.00452502 1.68888476 110.96963456 -535.784789356317
1.09888987 1.68888476 124.36842253 -535.760164822211
1.04024066 1.66127760 103.00000000 -535.782114733372
1.44655322 1.68195309 103.00000000 -535.688259596643
0.96446195 1.52932738  92.74283651 -535.766006020062
1.20445158 1.68888476 102.75297270 -535.749639469436
0.96446195 1.67452329 102.62611899 -535.789081507704
1.08172657 1.52051213 103.00000000 -535.758181171845
0.96446195 1.78604378 116.37354801 -535.778754012049
0.96446195 1.73055166 119.66873750 -535.779670328777
0.96446195 1.77609634 110.00136829 -535.783772670818
0.96446195 1.62514900  67.45707323 -535.733577497021
1.05383262 1.95621452 103.00000000 -535.761920116729
1.37229828 1.79819331 103.00000000 -535.704243458623
0.98371373 1.86331139 103.00000000 -535.778460022708
1.02507488 1.54028714 103.00000000 -535.771640903326
1.10887389 1.68888476  68.92823517 -535.734034688249
1.08152696 1.68888476 106.03090902 -535.775573507228
0.88140468 1.66055778 103.00000000 -535.783476636697
0.96446195 1.66212846 141.74112255 -535.753764099680
1.00154365 1.68888476  88.48204079 -535.780044844583
0.96446195 1.68880056 128.85731632 -535.771506435230
0.90735530 1.74478330 103.00000000 -535.785771753970
1.29751602 1.61109486 103.00000000 -535.722570714414
1.02183922 1.68888476 136.38766763 -535.756471692970
0.96446195 1.71200415  72.66406864 -535.758964822407
0.84383160 1.73583738 103.00000000 -535.773107593651
1.17594994 1.68888476 104.86069578 -535.756188273595
0.81993957 1.68888476 132.89838955 -535.742983452634
0.95751782 2.04535664 103.00000000 -535.760460647524
0.96446195 2.01873455  89.34203385 -535.764073687032
0.96446195 1.73636046  79.18717204 -535.771955595439
1.11429671 1.94468005 103.00000000 -535.752694700563
0.96446195 1.72703342 132.18648352 -535.765056491227
1.00426408 1.99375695 103.00000000 -535.763780859334
0.96446195 1.57938412  90.81817221 -535.774280654429
1.03818917 1.59228187 103.00000000 -535.777927057859
0.96446195 1.64918894  59.73430300 -535.711999251652
0.95530338 1.90758325 103.00000000 -535.775058160657
0.96446195 2.21533616  97.49602710 -535.744822264396
0.96446195 1.84510091 106.46530762 -535.779771778864
0.78060785 1.89382411 103.00000000 -535.729986445763
0.96446195 1.81052381  72.27832029 -535.761689796117
1.06044084 1.68888476  80.52528286 -535.763155775345
1.11038088 1.68888476  97.62412643 -535.769608326615
0.75421666 1.85093400 103.00000000 -535.714567341015
1.04955943 1.68888476 133.00272154 -535.757691852410
1.12261376 1.68888476  62.28822706 -535.716406267413
0.98656616 1.68888476 139.63161558 -535.754833084542
0.93884844 1.61450267 103.00000000 -535.786768682759
0.96446195 1.63298294  80.51265234 -535.766630250700
0.87734865 1.68888476 113.54300192 -535.779876612444
0.96446195 1.70750182  95.52124038 -535.787410504518
0.96446195 1.71894771  83.46547319 -535.777412715959
0.92588376 1.68888476 113.99550488 -535.785368673247
1.03713820 1.68176541 103.00000000 -535.782841407802
0.99497724 1.68888476 116.63948624 -535.782216350518
1.04578269 1.68888476 122.69612616 -535.770958195599
0.99221450 1.80433629 103.00000000 -535.782807014475
0.75970935 1.58825850 103.00000000 -535.725226067073
0.91956849 1.83397104 103.00000000 -535.780778114463
1.07189898 1.68888476  89.61168237 -535.771967961927
0.96446195 1.74497714  79.53035644 -535.772646486148
0.95136196 1.68888476  60.14291241 -535.720973653046
0.96446195 1.84546671  80.94312226 -535.772676241070
0.96446195 1.97003364  90.34502269 -535.769022299428
0.96446195 1.84915404 106.27453353 -535.779477896329
0.87774720 1.68888476 112.72279263 -535.780409860869
0.99718283 1.68888476  58.05275774 -535.714016785940
0.90056932 1.51496351 103.00000000 -535.768724459846
0.96850555 1.64283311 103.00000000 -535.788159906075
0.96446195 1.84954774 106.76540646 -535.779241526777
0.96446195 1.82187263  78.51623054 -535.770789050242
0.95373825 1.77986304 103.00000000 -535.786013017504
0.96446195 1.73823363  83.83917132 -535.778164195662
1.19629661 1.79530414 103.00000000 -535.747894482383
1.32622663 1.69460302 103.00000000 -535.719382055195
0.96446195 1.61887339 112.41408896 -535.785727696241
0.84968973 1.76072815 103.00000000 -535.773659722450
1.02474412 1.94477476 103.00000000 -535.766889517232
0.96446195 1.68190204  82.30417121 -535.774231832617
1.20909114 1.68888476 110.97941963 -535.746617378297
1.07092143 1.68888476  69.12629941 -535.740192063912
0.89720792 1.58227534 103.00000000 -535.780624041300
1.09602483 1.68888476 124.72654005 -535.760311912213
0.95396771 1.92638732 103.00000000 -535.773137543325
1.20554706 1.68888476  95.08721689 -535.747633376112
0.76994870 1.68888476  57.38029807 -535.652567141559
0.96446195 1.56492253  64.07194315 -535.705544636161
0.96446195 2.06942547 102.68362890 -535.757944310265
0.98378558 2.24119036 103.00000000 -535.740559563860
1.12708828 1.68993559 103.00000000 -535.767043466597
0.96446195 1.54482967  56.32005904 -535.661425243051
0.96446195 1.40986273 112.72121832 -535.731390809121
1.16429794 1.78499438 103.00000000 -535.755860182981
0.96446195 2.11022163  85.06601947 -535.754173936813
1.05324011 1.66007393 103.00000000 -535.780182368187
1.19494691 1.73661275 103.00000000 -535.751120534077
1.31832276 1.55126685 103.00000000 -535.708094119296
0.96446195 1.74193353  85.94300399 -535.780435936030
0.95341799 2.00893966 103.00000000 -535.764364207163
0.96446195 1.77005331 121.85072882 -535.774857432022
0.96446195 1.60761113  82.68752306 -535.766902424220
0.96446195 1.60636637 112.87837957 -535.784809250948
0.84254157 1.66364175 103.00000000 -535.773870018830
1.24899587 1.68793827 103.00000000 -535.738792755285
1.10880558 1.68888476  71.97857528 -535.740351537288
0.96446195 1.81896323  79.86234232 -535.772497673085
0.96446195 1.87670884  67.40419217 -535.752683644748
0.90223804 1.68888476 130.31204918 -535.767408135079
0.83495172 1.68888476 114.51381998 -535.767807921186
0.96446195 1.76586257 102.23927751 -535.786766311925
0.96446195 1.84842539 132.33108467 -535.754578757715
0.96446195 1.96796358 115.58054341 -535.761426312245
1.14427357 1.68888476 110.84433290 -535.761545380106
0.83406658 1.68888476  76.50875475 -535.745382198844
0.91360438 1.68888476  84.29745443 -535.775804701133
1.08370900 1.91504291 103.00000000 -535.761305955194
1.08630361 1.75190113 103.00000000 -535.773505610660
0.95460688 1.68888476 105.33803371 -535.789191419108
0.96446195 1.56409186 105.92626605 -535.781504280513
0.96446195 1.66574042 129.09400209 -535.771898453717
0.96446195 1.53898896  88.39560753 -535.762448171934
1.19980568 1.87066895 103.00000000 -535.741244576913
1.54436442 1.65582077 103.00000000 -535.670442330609
0.96446195 1.74782255 127.88959951 -535.769447037243
0.83790300 1.69212330 103.00000000 -535.772360038953
0.96446195 1.85949724 116.53723739 -535.771965099711
0.88127084 1.68888476  89.29797040 -535.777125575331
1.15591882 1.59446671 103.00000000 -535.755962414430
0.96446195 1.67430297  90.79820236 -535.783726912798
0.96446195 1.73868746  85.76591864 -535.780259787447
0.96446195 1.68065203 115.59404780 -535.784866425600
0.96446195 1.65220161 132.63051206 -535.767517321609
0.98252267 2.20055822 103.00000000 -535.744242021162
1.20854771 1.68888476  88.61498563 -535.742650881217
1.04594156 1.68888476 126.08294728 -535.767212521434
0.97334869 1.68888476 125.57516431 -535.775113994727
1.25824286 1.82157755 103.00000000 -535.731162639318
1.41652685 1.68888476  94.94670578 -535.694397900119
0.87764237 1.68888476 107.49701803 -535.782444422720
0.96446195 1.89355351 120.64037094 -535.764614863719
0.98214011 1.68888476  84.40610437 -535.776845737551
0.83099766 1.90404126 103.00000000 -535.754918115479
0.75731597 1.68888476 118.35405641 -535.721259905284
1.11573811 1.70980930 103.00000000 -535.769201033475
1.30935791 1.68888476  86.37384495 -535.715827997783
1.02840909 1.58145703 103.00000000 -535.777946943371
0.86013407 1.68888476  85.04514593 -535.767681195819
1.10143434 1.79956256 103.00000000 -535.767999345968
1.28222941 1.68888476 103.53516181 -535.730479996662
0.90402115 1.68888476 119.16220668 -535.779816202257
0.88506124 1.68888476 108.71843042 -535.783433091292
0.96446195 1.57091191  79.20196692 -535.752847766128
0.96446195 1.87096749  94.99044652 -535.778968044025
1.26953612 1.68888476  94.51502145 -535.731709465653
0.96446195 1.79908086 131.18537562 -535.760852969521
1.34732368 1.56998869 103.00000000 -535.704261442229
0.92953400 1.94643442 103.00000000 -535.770391590931
1.06386579 1.82650901 103.00000000 -535.772587026773
0.96446195 1.57650367 103.58779219 -535.782815323208
1.34316424 1.62672813 103.00000000 -535.711946225679
0.96585357 1.56968693 103.00000000 -535.781667475183
0.96446195 1.84527714  71.10611284 -535.759509817563
1.10189533 1.68888476 100.12129280 -535.771866393732
1.06670487 1.57068197 103.00000000 -535.770756211969
1.09370903 1.64778125 103.00000000 -535.772845271475
0.96446195 1.72710510 117.54889411 -535.781722782868
0.89015336 1.90043741 103.00000000 -535.771043617940
0.95586056 1.68888476  89.78753172 -535.783511816031
1.30694386 1.51257259 103.00000000 -535.704144066986
0.96446195 1.91930210  97.37656106 -535.774682189676
0.85560633 1.54030268 103.00000000 -535.765988031148
1.19564023 1.68888476 123.80736150 -535.739878056389
1.10848280 1.75940265 103.00000000 -535.768995235308
1.19890790 1.64587300 103.00000000 -535.749959917881
1.22196343 1.68888476  77.35231272 -535.726216012793
0.96446195 1.55084223 116.29754454 -535.777528597205
1.09741815 1.68888476 114.51303895 -535.769101667058
0.96446195 1.72818070 144.01835342 -535.746290134803
0.96446195 1.69019247 122.51137741 -535.778724374057
1.05930012 1.68888476 124.34191075 -535.767148267317
1.46631328 1.68888476  95.04684842 -535.681148713513
0.78545502 1.57555618 103.00000000 -535.741725740081
1.00019283 2.17022020 103.00000000 -535.745984534326
0.96446195 1.73805227  99.08558058 -535.787902547029
1.05906546 1.68888476 107.31272854 -535.779070931526
1.01143953 1.68888476  91.16999074 -535.781454343186
0.84728973 1.68888476  71.81765965 -535.739376023116
1.09469203 1.68888476 123.08464467 -535.762335835570
0.96248277 1.95343934 103.00000000 -535.770237342435
1.18977782 1.51906224 103.00000000 -535.730878714437
0.87488681 1.67550658 103.00000000 -535.782424278878
0.96446195 1.87167154 100.85155288 -535.778891138380
1.26110727 1.61328372 103.00000000 -535.732337307429
1.20005098 1.80556697 103.00000000 -535.746335708235
0.96446195 1.91181299  97.60510533 -535.775400582236
0.94328695 1.56615672 103.00000000 -535.781444680998
1.01116721 1.96550809 103.00000000 -535.766146246788
1.39511636 1.68888476  99.78401741 -535.701480734640
1.08513834 1.86714605 103.00000000 -535.765586058870
1.23358705 1.68888476 124.65545705 -535.729882044360
1.10769901 1.81308031 103.00000000 -535.765848191971
0.96446195 1.74905589  89.85520080 -535.783690162968
1.32666918 1.68888476  87.90553018 -535.712835999718
0.84136178 1.68888476  83.14187533 -535.759493763232
1.04202770 1.91333973 103.00000000 -535.767934681498
0.86916535 1.99191153 103.00000000 -535.757127372619
0.96446195 2.12971681  93.21302718 -535.753410735401
0.80759458 1.68888476 120.21257388 -535.751929564963
1.16821239 1.68888476  84.51210608 -535.747838600004
0.97222654 1.68888476 113.26162730 -535.785884798002
0.96446195 1.80738903  73.33687185 -535.763479669880
0.96446195 1.82937228 104.58624569 -535.781806844988
0.96446195 1.59652402 112.34821112 -535.784297339578
0.97064994 1.99812532 103.00000000 -535.765285660962
1.04228098 1.68888476 114.19090690 -535.778539111186
1.16196380 1.68888476 125.89395847 -535.745278680373
0.96446195 1.64190051  65.61575915 -535.731180683604
0.96446195 1.94272951  76.84960326 -535.763078048604
0.86998495 1.68888476  99.64728191 -535.780945988899
0.96446195 1.49536151  81.62290211 -535.735107007820
0.96446195 1.66742103 106.26100245 -535.788857633677
0.96446195 1.51338385  88.55000187 -535.755413788399
1.12329372 1.68888476  88.97995353 -535.761884866378
0.96446195 1.87241752  92.71039564 -535.778370619164
0.85174803 1.72305444 103.00000000 -535.776027773369
0.96446195 1.99850268  89.71905397 -535.766130991830
1.07833096 2.03010774 103.00000000 -535.750352081391
0.96446195 1.65306910  92.23824906 -535.783866435040
0.96446195 1.75151986 107.22515186 -535.786492406682
0.96446195 1.61871891  84.93596510 -535.772163437074
0.98270969 1.68888476  55.07220166 -535.702287651794
1.06981308 1.68888476  78.71759411 -535.758927835802
0.96446195 1.71314233  67.47194066 -535.746875698960
0.93791510 1.72263815 103.00000000 -535.788594846918
0.96446195 1.74653523  77.32299493 -535.769314326247
0.90446883 1.68888476 107.16722035 -535.786534517211
0.96446195 1.61829040  86.43101773 -535.774284000227
0.96446195 1.70052399 138.48637014 -535.757199464997
1.12263222 1.91599775 103.00000000 -535.753908830167
1.30320111 1.68888476 122.33473536 -535.715088674412
1.06196069 1.68888476 100.48939747 -535.778992631752
0.96446195 2.07061822  95.39865341 -535.759285371709
0.96446195 1.65502998  99.50586244 -535.788049735700
0.96446195 1.54679753 112.98917415 -535.778210421174
0.96446195 1.70278745 108.81795525 -535.787915379416
0.99843710 1.68888476 108.00967037 -535.786443369304
0.96446195 1.61590463  90.50988961 -535.779042280043
0.82285187 1.76025567 103.00000000 -535.764102698035
0.81335053 1.68888476  75.85590983 -535.735354553431
1.12868629 1.68888476  88.14737824 -535.760037496600
1.11328100 1.75389913 103.00000000 -535.768308956641
0.96446195 2.07305406 108.45688732 -535.755063346513
0.76088120 1.57421729 103.00000000 -535.724498820008
0.96446195 1.45651994  78.18016412 -535.708121917229
1.02427979 1.69367216 103.00000000 -535.784481147747
0.95323920 1.68888476 130.01007458 -535.770251204781
0.82165187 1.68888476 129.81650053 -535.747792006311
1.44963535 1.68888476 100.52553984 -535.687499111019
1.06939898 1.68888476 113.02190184 -535.775026161634
1.24113868 1.68888476  92.98380285 -535.737927634332
0.96446195 1.55128977  54.39362082 -535.653142890827
1.19356212 1.77806571 103.00000000 -535.749571487441
0.75874094 1.73562793 103.00000000 -535.727114758060
0.92118052 1.83629484 103.00000000 -535.780696103490
0.85188938 1.73099910 103.00000000 -535.775772201449
0.96446195 1.76552398 120.78529134 -535.776294655223
0.88045283 1.80920713 103.00000000 -535.777757216336
1.11591659 1.68888476 122.83806987 -535.758456512621
0.96446195 1.52333449  83.26500565 -535.748661155198
0.96446195 1.84557468  97.43254129 -535.781319362926
1.20210188 1.55640554 103.00000000 -535.739069927104
1.12461313 1.68888476 146.89962233 -535.721598001621
0.96446195 1.66332821 106.58684237 -535.788762294349
0.96446195 1.67751262  65.07571185 -535.735695300614
0.96446195 2.01883346 121.93291376 -535.750320174800
0.96446195 1.65794813 111.66827486 -535.787179227837
0.96446195 1.58274031 136.87517631 -535.760341971283
1.14663303 1.68888476 119.05510760 -535.755599483382
0.96446195 1.75629947  93.59112258 -535.785663228068
0.94525290 1.53269034 103.00000000 -535.775387617301
0.93066645 1.90497431 103.00000000 -535.774761273421
0.83081465 1.72951793 103.00000000 -535.768809416156
1.14988262 1.81463607 103.00000000 -535.757059378920
0.96446195 2.03451609  92.02417501 -535.762933904726
0.96446195 1.92043373 130.82320774 -535.749592410387
1.08982259 1.70937656 103.00000000 -535.774194076484
1.05617626 1.89449357 103.00000000 -535.767766977646
0.96978272 1.50618127 103.00000000 -535.768377999844
0.88261661 1.79231743 103.00000000 -535.779430669226
0.96446195 1.75926667 139.23520307 -535.751902869727
0.96446195 1.84181835 125.56292558 -535.764280463056
0.93028622 1.44791845 103.00000000 -535.747857685367
1.47726584 1.68490912 103.00000000 -535.680231869816
0.94382710 1.68888476 103.26907181 -535.789317344371
1.45842044 1.58457748 103.00000000 -535.684601084653
0.96446195 1.90468243  74.33673593 -535.762395837087
0.96446195 1.72899713 106.42144632 -535.787798878144
1.14452138 1.68888476  97.86082710 -535.762607544218
1.15379119 1.68888476 104.40590561 -535.761235240667
1.28488280 1.75316583 103.00000000 -535.728557734861
0.71141396 1.76256557 103.00000000 -535.678263224620
0.96446195 1.72306670 109.72556063 -535.786887150668
0.80543774 1.68888476  97.86205032 -535.757676562984
1.03305459 1.68888476  81.66899531 -535.768556359676
0.91335011 2.07818732 103.00000000 -535.755000378444
1.10625626 1.55216668 103.00000000 -535.760358734296
1.01996096 1.48534347 103.00000000 -535.757546843979
0.74792095 1.86714895 103.00000000 -535.707478802918
0.96446195 1.69829993  73.76953220 -535.760216446745
1.07343656 1.47239669 103.00000000 -535.743687846564
0.95242916 2.16246765 103.00000000 -535.748458973292
1.09535054 1.74321465 103.00000000 -535.772214246520
0.73395707 1.47099632 103.00000000 -535.676830093201
1.09267797 1.68888476 132.81949476 -535.750649794152
1.26678070 1.48629015 103.00000000 -535.706023021950
1.17986171 1.68888476 127.87125109 -535.738850505500
0.85913192 1.68888476 137.67342797 -535.749230866765
1.35179296 1.74178685 103.00000000 -535.712142035031
1.29173850 1.84181016 103.00000000 -535.721316027803
1.19514679 1.74881132 103.00000000 -535.750623840419
0.96446195 1.72355825  99.02784350 -535.788295536291
0.99022338 1.94726744 103.00000000 -535.769740907114
0.96446195 1.63284822 131.52974909 -535.769053409069
0.99875037 1.68888476 122.69170837 -535.776521085426
0.96446195 1.77765698 110.28856276 -535.783513459380
0.96446195 1.79127350 121.60909499 -535.773404050256
1.03624830 1.79584290 103.00000000 -535.778859587041
1.10632672 1.68888476  88.13711630 -535.764468416090
1.46055032 1.68888476  95.57188210 -535.683009583315
0.89473916 2.01338465 103.00000000 -535.759662284814
1.17009170 1.68612089 103.00000000 -535.757644568608
0.99273860 1.68888476 115.38426620 -535.783291865686
1.01655854 1.46837618 103.00000000 -535.751671505991
0.96446195 1.77081793 123.32811751 -535.773198542611
0.96446195 1.60766069  63.80148143 -535.717210844329
1.04986770 1.40471485 103.00000000 -535.714450904390
0.94416665 2.02401103 103.00000000 -535.762623023232
1.09907770 1.68888476 147.15856154 -535.726291636977
0.96446195 1.66221249  97.61292064 -535.787618370360
0.99804675 1.68888476 105.20838410 -535.787063639913
1.04198618 1.62614999 103.00000000 -535.780330625756
0.96446195 1.64410240  68.31708651 -535.739789599084
0.96446195 1.84281086  71.26007157 -535.759796279794
1.12219170 1.81763947 103.00000000 -535.762644926025
1.13190548 1.94037593 103.00000000 -535.749607382081
0.79633710 1.61386003 103.00000000 -535.751829661790
0.96446195 1.89634363 114.25174619 -535.770089090148
0.96446195 1.84448543  77.02923818 -535.768235630974
0.96446195 1.57793828 108.37071361 -535.783363928934
0.96446195 1.56516920  72.08588235 -535.732964604338
0.96446195 2.09039881  87.50061005 -535.756686652404
1.06921171 1.68888476 145.91467517 -535.733935791344
1.11101581 1.82554245 103.00000000 -535.764267089170
0.96962987 1.65173530 103.00000000 -535.788449696770
0.98128314 2.03696812 103.00000000 -535.760718320587
1.11869325 1.68888476  82.08437139 -535.755219533519
1.19749761 1.68137166 103.00000000 -535.751244356006
1.17123137 1.54007766 103.00000000 -535.743259763163
0.96446195 1.74355162 124.44902117 -535.773907226856
0.96446195 1.53182072 136.11907749 -535.756337419584
0.96446195 1.82446708 107.66513664 -535.781090921988
1.00317187 1.68888476 104.03323208 -535.786718806208
0.93129360 1.68888476 132.11416508 -535.767139065302
0.96446195 1.78632762  81.40439538 -535.775072426144
0.89972453 1.82666589 103.00000000 -535.779381740468
0.96446195 1.84638004  73.39419085 -535.763130124778
0.91781922 1.77619822 103.00000000 -535.784993712598
0.86508860 1.40056999 103.00000000 -535.715056132627
1.11204216 1.86143867 103.00000000 -535.761094787873
0.86093248 1.68888476  88.05622535 -535.771423837977
1.07896460 1.82824679 103.00000000 -535.769953241712
0.77536358 1.85072920 103.00000000 -535.730803164562
1.17051460 1.68888476 128.07286690 -535.740732766136
1.18365091 1.76894644 103.00000000 -535.752365319679
0.96446195 1.70705381  91.67397994 -535.785211149263
0.96446195 1.87136648 114.49063327 -535.772459872423
0.87668594 1.68888476 104.93861684 -535.782698104394
0.96446195 1.62493190 104.01424880 -535.787474944867
0.96446195 1.69637308  85.49490689 -535.779184655090
0.91713090 1.68888476 124.45523938 -535.775838898884
1.31621898 1.68888476  94.13376402 -535.719751056077
1.02269776 1.68888476 112.17753277 -535.782251617853
1.38188282 1.55961941 103.00000000 -535.696598492198
1.24413182 1.68888476 111.63474370 -535.737787062501
0.96446195 1.79771528  73.11766201 -535.763083812256
0.96446195 1.69539349 106.53551909 -535.788715071627
1.05485060 1.42551501 103.00000000 -535.724801054894
0.96446195 1.89372673 101.98520024 -535.776580746786
0.97797367 1.67278413 103.00000000 -535.788522136551
0.96446195 1.52283414 101.94511988 -535.772359859910
1.00540346 1.92284630 103.00000000 -535.771093242914
0.90099346 1.69267000 103.00000000 -535.786555195079
0.96446195 1.67112579  94.81236082 -535.786511715400
1.16882812 1.68888476  74.01639106 -535.732618845756
1.09226830 1.68888476 104.51353899 -535.773833727405
0.93883788 1.92961770 103.00000000 -535.772562896042
0.96446195 1.82071889  99.51863650 -535.783300332159
0.96446195 1.60574304 102.55102929 -535.785797874940
0.99192657 1.68888476  90.80745724 -535.782865690357
0.96446195 1.65474845  95.67536598 -535.786352870639
0.96446195 1.64862796 124.96762015 -535.776894526739
0.76187528 1.68888476  64.72812482 -535.673823822132
0.97606009 1.73055422 103.00000000 -535.787871277790
0.96446195 1.94067014  81.20851911 -535.767040446556
0.95299892 1.68888476 118.72941173 -535.782506978721
1.00049677 1.68888476  78.54659646 -535.766918702553
1.07083683 1.68888476  97.90161885 -535.776943908737
0.88421018 1.68888476  86.80914330 -535.775038864042
0.96446195 1.92921156 117.92091462 -535.763523678808
0.97161914 1.68888476  84.60549323 -535.777568824405
0.96446195 1.65651281  95.90757142 -535.786565392004
1.36352117 1.68888476 102.81440520 -535.709841355688
0.96446195 1.87843206  90.03936181 -535.776992474654
0.96446195 1.81517009  85.45961496 -535.778185053636
1.07754552 1.68888476 111.97914349 -535.774192415661
0.93344865 2.01052465 103.00000000 -535.763702838708
0.96446195 1.53601932  88.58016257 -535.761966869027
0.87030010 1.68888476 109.48777649 -535.780339924060
1.07030822 1.72549119 103.00000000 -535.777254234515
0.87838159 1.62466075 103.00000000 -535.781496150185
0.96446195 1.57348067  79.18256104 -535.753400956854
0.79055527 1.68888476  91.19690217 -535.745546332327
1.00981251 1.68888476  93.75134251 -535.783383140627
0.96446195 1.86417389  95.94948581 -535.779663970918
1.43961231 1.79426042 103.00000000 -535.687750984978
0.71079666 1.63632097 103.00000000 -535.680184557560
0.96446195 1.71311009 117.90981154 -535.782097503838
1.42580202 1.68888476 112.44044837 -535.691552754934
1.07503483 2.04029921 103.00000000 -535.749831193207
0.96446195 1.77950396 127.81512502 -535.767101488987
1.06929095 1.62488030 103.00000000 -535.775988483159
1.08395025 1.48250775 103.00000000 -535.745651861333
0.84595900 1.94857979 103.00000000 -535.755441710706
0.69428534 1.51511273 103.00000000 -535.643239320906
0.96446195 1.72108496  99.58487088 -535.788444020753
0.96446195 1.80711507 124.04118440 -535.769338589857
0.88074000 1.68888476  77.51038728 -535.760272767041
0.96446195 1.81967267 108.97705413 -535.780882912207
0.97968284 1.68888476  64.51666924 -535.735639404120
0.84345061 1.68888476  59.15113964 -535.698022070413
1.34057799 1.68888476 113.35669122 -535.712663472258
0.96446195 1.68492681 125.29683009 -535.775909335604
0.94490586 1.84532093 103.00000000 -535.780927804263
0.99710915 1.68888476 113.12783254 -535.784350343461
0.96446195 1.71877198 128.82095877 -535.770113456556
0.68910470 1.89472567 103.00000000 -535.636174156237
1.35842899 1.79603111 103.00000000 -535.707855152294
0.84756893 2.01047779 103.00000000 -535.749149165803
0.85853236 1.95137558 103.00000000 -535.758871301646
1.07538337 1.68888476 109.63418827 -535.775621499142
1.09537676 1.69633052 103.00000000 -535.773310466764
1.21603243 1.68888476  90.08769394 -535.742064662094
0.90434404 1.91472975 103.00000000 -535.771555487251
0.96446195 1.45470390  91.77225149 -535.737818478828
0.99736405 1.68888476  99.25041417 -535.786807548100
0.96446195 1.81200248 116.58330851 -535.776397871635
0.96446195 1.60581151 109.93103153 -535.785736581536
0.91520422 1.76511090 103.00000000 -535.785451399317
0.96446195 1.67656657 125.37334577 -535.776064844362
0.86021947 1.76035853 103.00000000 -535.776613126745
0.96446195 2.06326401 117.16806419 -535.750196754538
0.96446195 1.47473111 106.13228977 -535.760070021858
0.96446195 1.68310914 146.00764680 -535.745850201971
1.13418866 1.68397428 103.00000000 -535.765537103003
0.75263968 1.68888476 105.28927932 -535.723473025867
0.85199381 1.42609500 103.00000000 -535.726329768893
0.96446195 1.64281739 105.08095490 -535.788386596403
1.01517594 1.73580803 103.00000000 -535.784591312762
0.96446195 1.79767753  98.38383370 -535.784874406434
1.10781707 1.68888476  81.17609126 -535.756064970503
0.98601212 1.68888476  60.45685441 -535.722653846405
0.96722674 1.52519604 103.00000000 -535.773318565712
1.00049905 1.68888476 116.12733162 -535.782119939707
0.73164785 1.68888476 105.32716998 -535.703913703383
0.96446195 1.80742151 109.26794293 -535.781761680304
0.70146602 1.88425461 103.00000000 -535.654590573642
1.33296931 1.68888476 120.81364847 -535.709063234290
0.96446195 1.85279745 119.91336436 -535.769481110026
0.96446195 1.56142860  71.30429772 -535.729532249628
0.81741047 1.68888476  75.84494148 -535.737195407203
0.96446195 1.98469786 120.28203894 -535.755438384669
0.93273536 1.70971475 103.00000000 -535.788763194018
0.82492968 1.68888476  57.40886525 -535.683790227918
0.96446195 1.63245787 102.05290380 -535.787640346220
1.18383877 1.78144680 103.00000000 -535.751634610122
1.00139031 1.68888476 100.57532540 -535.786719624210
0.96446195 1.84332838 115.06442815 -535.774762082197
1.13885929 1.45793009 103.00000000 -535.723162138497
1.02284717 1.68888476 126.72085855 -535.769538241251
1.12565173 1.68888476 137.60331481 -535.736997372972
0.84606889 1.68888476  94.03081616 -535.772214954055
1.04615210 1.89833265 103.00000000 -535.768844336486
1.36575140 1.70551991 103.00000000 -535.709321227701
0.96446195 1.84669910  84.80335482 -535.776072429181
0.95392093 1.68888476 132.32762171 -535.767124351288
0.96446195 1.61711752 120.67313834 -535.780438813378
0.96446195 1.66710503 142.61174491 -535.752190792967
1.03417786 1.77907257 103.00000000 -535.780207490311
1.27305364 1.66459904 103.00000000 -535.732401886118
0.89110223 1.70801486 103.00000000 -535.784981892702
0.80062055 1.68888476  80.87269027 -535.738403747835
1.02229874 1.73505163 103.00000000 -535.783822377869
1.11437647 1.58323618 103.00000000 -535.763554583645
1.19857274 1.88942292 103.00000000 -535.739839757432
0.96446195 1.85500061 107.12777144 -535.778578271855
0.96446195 1.78135198 102.74494164 -535.785792521214
0.92506121 1.65991874 103.00000000 -535.788436104713
1.09982466 1.68888476  74.38332874 -535.746494979540
0.95912798 1.65829881 103.00000000 -535.788950307419
0.96446195 1.66530680 125.99387396 -535.775607503713
0.93896650 1.54893387 103.00000000 -535.778529696615
0.79828449 1.59867304 103.00000000 -535.751651894141
0.91541315 1.40227383 103.00000000 -535.722552697886
1.06497035 1.68888476  94.10153047 -535.776267829493
0.96446195 1.69232317  72.94635452 -535.757923230400
1.06325742 1.96273041 103.00000000 -535.759828250346
0.96446195 1.60150654 105.22772653 -535.785812842412
0.96446195 2.05071636 117.84292083 -535.750894382986
1.24605549 1.68888476 115.61109050 -535.734969580750
0.96647664 1.53100496 103.00000000 -535.774657553533
0.96446195 1.62339392  62.50196068 -535.716411560628
0.96446195 1.74269607 123.56743550 -535.774954979859
0.94316985 1.68888476  92.10027520 -535.785341490793
1.03159423 1.67264999 103.00000000 -535.783492393082
0.85488350 1.68888476  93.14305997 -535.774232246253
0.97516976 1.68888476 122.74876472 -535.778092776675
1.19738190 1.68888476  83.48554433 -535.740050523639
0.93486317 1.50031958 103.00000000 -535.767109773892
0.96446195 1.76957072 123.23898632 -535.773394157679
0.96446195 1.49998117 119.68799842 -535.765956361952
0.96446195 1.71319629  83.64888532 -535.777490766279
0.96446195 1.79853341  75.87790045 -535.767534874007
0.96446195 1.71949542  80.93395770 -535.774031129945
0.96446195 1.83088140  58.48581062 -535.731620105348
0.94517198 1.63771244 103.00000000 -535.788288505872
1.01035393 1.68888476 112.65572844 -535.783369649108
1.40189484 1.62826264 103.00000000 -535.695966752919
0.96446195 1.86763045  89.42080913 -535.777545526979
1.00676208 1.68888476 129.37760925 -535.768003640114
0.96446195 1.55305747  93.30566181 -535.772178714263
0.96446195 1.77967558 137.90457401 -535.752352023947
0.96446195 2.02530058  88.87547878 -535.763324595848
0.96446195 1.70060609 118.01505236 -535.782508904635
0.96446195 1.59445225 144.61339566 -535.749571528169
0.89019728 1.68888476 116.53594893 -535.780113064626
1.02852060 1.72491923 103.00000000 -535.783405651906
0.97642344 2.12748712 103.00000000 -535.751531859671
0.71942060 1.68888476 106.57505446 -535.690584675091
0.96446195 1.87161825 134.55727827 -535.749006126081
0.97943405 1.68888476 128.28266982 -535.771556870590
1.08697920 1.68888476 128.49620523 -535.757502910051
0.96446195 2.05425172  90.00177593 -535.760701075277
1.01674206 1.68888476 112.46448493 -535.782787069460
0.96446195 1.55968916 113.75164747 -535.779858491626
0.97627840 1.68888476 111.03170369 -535.786840517117
0.79809770 2.01120242 103.00000000 -535.727700769959
0.96446195 1.79512913 101.15824046 -535.785055368939
0.96446195 1.53636281 141.69069442 -535.749491562870
0.94449436 1.93091039 103.00000000 -535.772575534295
1.11592230 1.54500958 103.00000000 -535.756985518233
1.02043844 1.75121647 103.00000000 -535.783369144387
1.18410704 1.68888476  89.61765004 -535.749195005171
0.93319431 1.68888476 117.92578256 -535.782911931488
0.98032908 1.68888476  79.64591553 -535.770005801975
1.04394915 1.68888476 110.94268889 -535.780059368434
1.18968787 1.68325570 103.00000000 -535.753099465058
1.15317255 1.68888476  74.53497178 -535.736725303140
0.96319421 1.56059083 103.00000000 -535.780365077474
0.87667291 1.76422950 103.00000000 -535.780141925668
0.96446195 1.68154343  88.74472405 -535.782125921174
0.98174324 2.09650623 103.00000000 -535.754452193097
0.96446195 1.63066048 125.32568030 -535.776375263935
0.96446195 1.70557168  65.80814296 -535.741599170034
1.14769214 1.68888476  72.89146168 -535.734898888549
0.92140432 1.68888476 102.24265764 -535.788428641740
1.02556826 1.68888476 115.59033174 -535.779827263171
0.95327661 1.68888476 123.77443299 -535.777675317796
1.19752129 1.67069104 103.00000000 -535.751086489619
0.96446195 1.91844103 107.31046007 -535.772158699780
1.00447639 1.68888476  88.83971390 -535.780127178431
1.50591122 1.72228127 103.00000000 -535.673960648761
1.03501285 1.68888476  72.67451393 -535.752445941278
1.37307429 1.68888476  88.94113590 -535.701836467280
1.21921077 1.67810273 103.00000000 -535.746006596843
0.96446195 1.72755482  83.47899843 -535.777606698078
1.12108523 1.49802330 103.00000000 -535.743019404344
0.79917827 1.68888476 121.68116365 -535.746248896879
0.96446195 1.71906202  82.60489858 -535.776313633343
0.96446195 1.60934291 108.70604081 -535.786242585740
0.96446195 1.53014843 103.99690813 -535.774922328862
0.96446195 1.70403465 122.53073058 -535.778179831766
1.36560887 1.73603773 103.00000000 -535.708832974986
0.93115658 1.94383492 103.00000000 -535.770752038223
1.11887191 1.68888476 104.93100989 -535.768603534353
0.96446195 1.96574379 117.25920138 -535.760238517605
0.96446195 1.82988144 115.77904668 -535.775450686330
0.96446195 1.68897296 117.08242887 -535.783608992843
1.11551927 1.68888476  95.76842033 -535.767886472751
1.07096888 1.69376197 103.00000000 -535.777678871706
0.94588371 2.07854971 103.00000000 -535.756855854647
0.97167017 1.68888476 131.13534361 -535.768249042510
1.21465219 1.68888476 118.50699847 -535.740409821551
0.93499171 1.68888476 133.33061556 -535.765567030489
1.11971750 1.68888476  93.41696698 -535.765841862081
0.94237899 1.68888476 102.47775987 -535.789280503298
0.96446195 1.53562755  69.58196697 -535.715526450692
0.77498423 1.76996633 103.00000000 -535.737266688193
0.98880136 1.68888476 121.20725807 -535.778788932980
1.14472410 1.90791563 103.00000000 -535.750133445285
1.19327599 1.68888476  87.70666066 -535.745425175388
0.87684058 1.83875920 103.00000000 -535.774567650675
1.34477260 1.68888476  85.35653762 -535.705863736441
0.96446195 1.90291766  93.95378052 -535.776013994739
0.87763967 1.68888476  87.95201466 -535.775078563898
1.20241703 1.68888476 104.97663275 -535.749980273716
0.96446195 1.81675940 147.54239014 -535.732173879149
0.98652520 1.68888476 103.23420719 -535.788076125579
0.96446195 1.78082906  79.61505452 -535.772923732278
0.96446195 1.74219430 120.62012036 -535.778065076254
1.01607572 1.68888476 143.01072308 -535.746563235692
0.96446195 1.62871961 103.51542851 -535.787650758503
1.24983844 1.85088733 103.00000000 -535.730939902406
1.25068607 1.73019776 103.00000000 -535.737858447728
0.96446195 1.98200506  85.13940606 -535.766052048405
0.96446195 1.81555383 111.55056974 -535.779791130363
0.96446195 1.71215237  69.35719183 -535.751482388525
0.88925459 1.82358806 103.00000000 -535.778124036698
0.96446195 1.80369885 131.03542800 -535.760650400886
0.96446195 1.61304655 106.85459640 -535.786725341450
1.05770549 1.66494307 103.00000000 -535.779605979483
0.94511761 1.89866075 103.00000000 -535.775884027775
1.09607060 1.68888476 111.34736839 -535.771134583708
0.87974565 1.68888476  92.91708328 -535.779824960443
1.03696781 1.86089997 103.00000000 -535.773581003878
0.99209886 1.72401822 103.00000000 -535.787093543049
0.77264823 1.71386024 103.00000000 -535.738462777455
0.96446195 1.55257385 113.30549491 -535.779004121172
0.95482203 1.68888476  97.76307978 -535.788413988308
0.96446195 1.72443354 129.26172749 -535.769207048902
1.15081424 1.68888476  80.95570627 -535.747166050445
1.13885786 1.59889071 103.00000000 -535.760219450386
1.01536137 1.68888476  82.14339056 -535.771205933913
0.97067090 1.54968566 103.00000000 -535.778219960408
0.96446195 2.12356343  85.41839242 -535.753033531148
0.96446195 1.76097255 108.01690591 -535.785659448248
0.91074594 2.15838245 103.00000000 -535.746551932930
0.96446195 1.96460357  89.80227258 -535.769396288999
1.15621431 1.68888476 112.00045894 -535.758366030104
1.17157109 1.68888476 100.32581506 -535.757140805144
0.96446195 1.96003073 109.20973479 -535.766724966275
1.03720481 1.68888476 106.45698866 -535.782487425700
1.12082166 1.68888476 131.73004177 -535.746666703494
1.07151823 1.68888476 116.81302300 -535.772155778604
0.93997842 1.46243827 103.00000000 -535.754215369282
0.96727704 1.68888476 107.60811506 -535.788459483107
1.27095340 1.58835318 103.00000000 -535.726595350503
1.26726137 1.50474271 103.00000000 -535.710456572182
0.97136730 1.69167377 103.00000000 -535.788888182834
1.02265994 1.68738545 103.00000000 -535.784693009925
0.90597806 1.72757044 103.00000000 -535.786330687728
1.29890613 1.68888476  94.43393424 -535.724286356176
0.96446195 2.02070144 119.70376589 -535.752282393809
0.96446195 1.92307453 127.02887580 -535.754292993503
1.03266585 1.47623876 103.00000000 -535.752511512630
0.98414845 2.11250064 103.00000000 -535.752697614257
0.90846194 1.82312899 103.00000000 -535.780696318679
0.84343658 1.68888476  79.71015523 -535.754697576450
0.92621603 1.78202779 103.00000000 -535.785181999168
1.04000735 1.65461038 103.00000000 -535.781959924079
0.94691390 1.68888476  87.62438954 -535.781399745043
0.75786127 1.68888476  82.87953661 -535.713105904782
0.96446195 1.47319932 106.20318913 -535.759549838604
0.96446195 2.04699811  92.24486814 -535.761690864882
1.07470788 1.53467206 103.00000000 -535.762828998879
1.04318243 1.68026202 103.00000000 -535.781993864146
0.96446195 1.70665305  74.29842423 -535.761952405498
0.69936740 1.86608102 103.00000000 -535.653702700828
0.94174007 1.68888476  63.08564651 -535.730488839870
1.15683888 1.68888476  93.59447023 -535.758075126668
0.80487194 1.68888476  94.84817685 -535.755977963559
1.39572381 1.68888476  88.97217623 -535.696004330913
0.96446195 1.79012373 106.36189452 -535.784328331021
0.96022601 1.68888476  67.25852232 -535.743539394289
0.96446195 1.54268451  75.73616375 -535.736652183459
1.00849721 1.68888476 127.60880215 -535.770055857694
0.96446195 1.98300461 123.60084698 -535.752190955604
1.45626246 1.78657058 103.00000000 -535.684102953369
0.96446195 1.96579934  94.23084641 -535.770033712384
1.08037716 1.68888476  74.76205314 -535.750411162880
0.93871125 1.68888476 120.69370725 -535.780666038551
0.96446195 1.68955214 105.61393407 -535.788954145885
1.13939518 1.68733424 103.00000000 -535.764441359455
0.87627810 1.68888476  71.48291368 -535.746187677185
1.09332919 1.90468305 103.00000000 -535.760611931860
0.96911792 1.61949176 103.00000000 -535.786825259587
0.82641159 1.68888476 101.61780215 -535.768021624278
0.76950934 1.83234394 103.00000000 -535.728366332072
1.10387384 1.68888476 101.23301892 -535.771631350433
1.50510886 1.68888476 102.00286348 -535.672490900231
1.17243041 1.51213470 103.00000000 -535.733767726306
1.12013433 1.68888476  65.11573706 -535.723646133589
1.02888726 1.86334967 103.00000000 -535.774374359476
0.96446195 1.60331560 119.33608275 -535.780836194542
0.93393520 1.68888476 105.46329382 -535.788931342938
1.04336812 1.68888476 106.72471056 -535.781573263185
1.08441409 1.68888476 112.70162296 -535.772589603985
0.97065214 1.68888476 139.47027281 -535.756015271046
1.03749785 1.58208620 103.00000000 -535.776813596107
0.96446195 1.78156807  66.64786601 -535.749751620483
0.96446195 1.61275038  90.39618367 -535.778554076265
0.84694522 1.81194650 103.00000000 -535.769214828517
1.12495839 1.68888476 119.66684980 -535.759665987808
0.96446195 1.89628457  82.07746371 -535.770856800661
0.96446195 1.82457319  69.17641056 -535.756131357880
0.90109352 1.86271801 103.00000000 -535.776328030259
0.92929929 1.77785922 103.00000000 -535.785613904317
0.87485489 1.62219506 103.00000000 -535.780660519089
1.12230376 1.68888476 116.82021688 -535.762561326664
0.96446195 1.58448047 107.22510931 -535.784164350914
1.29109677 1.68888476  82.67299952 -535.716510290984
0.92027400 1.68888476  76.71691908 -535.764012952304
0.96446195 1.53689144 110.05898964 -535.777050368090
0.83356861 1.68888476 127.78553713 -535.754949666256
1.03724536 1.68888476 133.93975619 -535.758119160510
0.96446195 1.44144316  90.88648966 -535.729726844489
0.96446195 1.55888169  83.45372802 -535.758797612792
0.96446195 1.88437792 120.97290897 -535.765215900082
1.40699571 1.74881135 103.00000000 -535.698022544904
1.11095595 1.68888476 100.58724189 -535.770168655744
1.00469458 2.10564747 103.00000000 -535.752001608775
1.14389312 1.62726960 103.00000000 -535.761529831719
0.90671681 1.68888476  90.39136208 -535.781791642153
0.81515367 2.06834225 103.00000000 -535.730148755061
0.94284108 1.84324207 103.00000000 -535.781072763581
0.84297861 1.68888476  75.99014433 -535.747447885786
1.08354908 1.68888476  82.48738871 -535.762212520875
1.04227140 1.68888476 110.46425553 -535.780509936375
1.33266734 1.65563435 103.00000000 -535.716843823821
0.96446195 1.85490990 121.55825722 -535.767573050268
0.96446195 1.89991301  79.31183765 -535.768166293392
0.98629636 1.86312484 103.00000000 -535.778325218939
0.96446195 1.65196198 111.26944549 -535.787274522563
0.76007599 1.58645038 103.00000000 -535.725320273353
1.45962492 1.68888476 107.89199102 -535.684609526005
0.77848603 1.68888476  82.02075596 -535.726986988110
0.96446195 1.75432847  97.34454466 -535.786990673510
0.96446195 1.52334922 117.06704525 -535.772469224221
0.96446195 2.02393740 110.16619793 -535.759278405788
1.23746298 1.72890763 103.00000000 -535.741143604560
0.99031340 1.49881634 103.00000000 -535.764957310396
0.76627851 1.53758131 103.00000000 -535.722674473455
1.11066133 1.68888476 104.75645853 -535.770273144420
1.03356114 1.68888476 123.08881782 -535.772251645987
0.87466071 1.67088676 103.00000000 -535.782344806417
0.86382871 1.68888476  59.90174190 -535.707206499517
1.07395519 1.72376010 103.00000000 -535.776687115826
0.95672846 1.68888476  99.85713991 -535.788967949255
0.75074350 1.68888476  94.57953605 -535.719288681351
1.07280415 1.68888476 134.98661102 -535.751065677920
1.11661381 1.63276254 103.00000000 -535.767625343610
0.86417569 1.68888476  78.78089704 -535.759003697778
1.12984907 1.68888476 102.16271266 -535.766454970170
0.85190537 1.84657906 103.00000000 -535.767707045430
0.97889994 1.66125905 103.00000000 -535.788273823690
0.96446195 2.08841124  85.19420653 -535.756249575794
1.36867875 1.68888476 100.06512510 -535.708306971935
1.05886613 1.68888476 116.88698588 -535.774177089449
1.07067280 2.23340165 103.00000000 -535.731753366298
1.12035697 1.68888476 138.55360317 -535.736585833647
1.05701968 1.68888476  79.16015136 -535.761555892700
0.96446195 1.88349063 135.68986545 -535.746112983327
0.96446195 2.20103481  98.02331488 -535.746042338488
0.96446195 1.58489352  97.51730382 -535.781252581152
0.96446195 1.60676990 112.80595432 -535.784865531165
0.96446195 1.62505402  88.16948632 -535.777355563021
0.96446195 1.69162122  94.16830822 -535.786624829092
1.03008168 2.01714598 103.00000000 -535.758664655564
1.47536870 1.69635005 103.00000000 -535.681292110342
0.97459378 1.59855021 103.00000000 -535.784805021812
0.96446195 1.50669661  89.86901997 -535.755398330070
0.96446195 1.72543984  86.00095123 -535.780428989409
1.17578122 1.68888476 108.16241459 -535.755518719201
0.96446195 2.00076067  95.51924232 -535.766507248233
0.96446195 2.11705297 119.64900912 -535.743018033390
0.77558451 1.52788730 103.00000000 -535.727237839417
0.90693426 1.68888476  70.80200327 -535.749565503728
0.93420461 1.96803424 103.00000000 -535.768317054247
1.18599234 1.68888476  88.56169923 -535.747875420481
1.02094205 2.23952770 103.00000000 -535.737810415932
1.11895928 1.68888476 109.45227487 -535.767450132103
0.99594301 2.15305333 103.00000000 -535.747947404526
0.89268371 1.68888476 133.83980464 -535.761385136550
0.96446195 1.84305256 107.51475968 -535.779511040049
1.26174438 1.68888476  86.76963705 -535.728091330569
1.22856621 1.68888476 103.97135618 -535.743777223678
0.82259337 1.66232286 103.00000000 -535.766494686714
1.30376103 1.68888476 107.06101086 -535.724537431157
0.96446195 1.79276332  83.52697406 -535.777234427817
0.87739189 1.68888476 118.72840925 -535.776209293769
0.91678623 1.84001064 103.00000000 -535.780034231185
0.97801891 1.59218320 103.00000000 -535.783960052639
1.00161470 1.69597343 103.00000000 -535.786851942966
0.88755883 1.68888476 129.01295212 -535.767102119242
0.99986936 1.68888476 129.69780735 -535.768239847891
0.99509817 1.68888476 100.17259623 -535.787184887312
1.18059827 1.68888476 117.41735950 -535.749317991724
1.15279327 1.68888476  87.63276637 -535.754465092554
0.95425022 1.68888476 112.85660202 -535.786603792283
0.96446195 1.63768356  96.21693572 -535.785696865813
0.96446195 1.87099651  67.14424388 -535.752265598830
1.02490015 1.68888476  92.49648331 -535.780936185195
0.91124580 2.03098685 103.00000000 -535.759838056147
1.25529517 1.67551007 103.00000000 -535.737096141936
0.76543747 1.68888476 100.58863205 -535.733498993615
0.96446195 2.04514818 120.32871735 -535.749248310282
0.96446195 1.87113104 130.16990278 -535.755405642181
0.96446195 1.78666594  95.31063712 -535.784973122870
0.96446195 1.59210600 144.84250017 -535.749149090714
0.83976946 1.87247716 103.00000000 -535.761349113649
0.76675000 1.68888476  66.94119434 -535.684521107791
0.87238772 1.68888476 137.77559751 -535.752111215712
0.85520389 1.68888476  68.20165840 -535.732203961815
1.08550027 1.87045588 103.00000000 -535.765224052954
0.96446195 1.71174714 111.70067384 -535.786375789458
0.96446195 1.74379475  91.62528484 -535.784954382389
1.20915250 1.68888476 120.96452947 -535.739544201158
0.81261257 1.68888476  89.59251454 -535.755754803524
0.86406648 1.68888476 105.76379093 -535.779854260292
0.96446195 1.61450277 148.82872238 -535.743318079891
0.96446195 2.05574881  85.62376487 -535.759459931408
1.12156044 1.68888476 116.59925374 -535.762879932680
0.96446195 1.54033745 121.58595288 -535.772678925063
0.96446195 1.52426393 135.39196279 -535.756110751531
0.96446195 1.74480631 140.56539442 -535.750859033878
0.96446195 1.86599177 116.77929995 -535.771107338549
0.96446195 1.52059054 129.84888755 -535.761900068769
1.22493945 1.63810023 103.00000000 -535.743267584952
0.96446195 1.52652812 105.35263770 -535.774538234653
0.96446195 1.77379548 102.94780774 -535.786231379209
0.96960702 1.68888476  95.77772522 -535.787263833002
1.22418487 1.72087152 103.00000000 -535.744574740581
0.86798012 1.68888476 115.93845699 -535.776394061229
0.87502314 1.86577703 103.00000000 -535.771691628332
0.92133715 1.93436674 103.00000000 -535.771140030988
1.18502034 1.68888476 123.25440441 -535.742940768370
0.98085246 1.68888476 122.83715352 -535.777691136011
0.89874117 1.89582645 103.00000000 -535.772779845646
0.67180133 1.85122098 103.00000000 -535.613555387546
0.96446195 1.81763801 130.27567736 -535.760435243636
1.01671175 1.93482371 103.00000000 -535.768785458505
0.98584484 1.84707058 103.00000000 -535.779789618583
1.27219162 1.62236045 103.00000000 -535.730314839268
0.96446195 1.63224845 132.36841777 -535.767951659167
0.86820208 1.68888476  83.76500024 -535.767939441017
1.02129787 1.83928120 103.00000000 -535.777358579667
0.96446195 1.68387036  80.90297008 -535.772222663627
0.94065473 1.68888476  92.06321299 -535.785265310421
1.00127265 1.89871780 103.00000000 -535.773859720682
0.75598297 1.69491812 103.00000000 -535.726241038520
0.96446195 1.71535099 142.01517080 -535.750582679143
0.90287608 1.68888476  77.43607734 -535.763621260790
1.20446950 1.68888476  82.75342789 -535.737537012250
0.96959117 1.68888476  71.86117621 -535.755079842441
1.09826226 1.68888476  78.53177583 -535.753877201530
0.99936573 2.00835071 103.00000000 -535.762626116305
0.78808432 1.83700058 103.00000000 -535.740394332709
0.96446195 2.03593979  99.26711853 -535.762397200387
1.16654197 1.76175885 103.00000000 -535.756621387048
1.21118350 1.68888476  89.41401572 -535.742691314625
0.96446195 1.52081161  95.01557515 -535.766364042816
1.14304843 1.60327537 103.00000000 -535.759752374719
0.96446195 1.51255057  84.99240119 -535.748685338551
1.00337205 1.68888476 109.04534774 -535.785670712035
0.73999588 1.66344806 103.00000000 -535.712261531198
0.93375333 1.68888476 104.27536889 -535.789043189620
1.01185935 1.68888476 103.86498015 -535.785873049657
0.86573770 1.68888476 136.00257807 -535.753316028218
0.76194494 1.68888476 115.11816956 -535.727274869552
0.87464887 1.68888476 125.59283801 -535.768896143956
1.08392023 1.89493029 103.00000000 -535.763222299659
0.96446195 1.48633704 117.85872672 -535.763244213809
1.34200501 1.77029003 103.00000000 -535.713422119673
0.72857004 1.68888476 144.60339586 -535.661321238139
1.00722092 1.68888476  91.98235406 -535.782473558642
0.96446195 1.88585139  93.84222269 -535.777503165928
0.89584815 2.07118922 103.00000000 -535.753588805438
0.90851981 1.68888476 101.73244098 -535.787333522264
0.95769560 1.64217818 103.00000000 -535.788430347612
0.86992808 1.81103122 103.00000000 -535.775440463365
0.98730720 1.71620594 103.00000000 -535.787645463885
0.84553558 1.48133307 103.00000000 -535.747713136861
0.99989552 1.79418725 103.00000000 -535.782922971457
1.36398088 1.79626156 103.00000000 -535.706448049508
0.96446195 1.59952821  61.95324706 -535.707964393358
1.11752948 1.68888476  99.71053302 -535.768710856011
1.46350843 1.68888476  97.53336585 -535.683034075755
0.96792308 1.73298976 103.00000000 -535.788117424905
1.32235763 1.68888476 114.60996395 -535.716530825817
1.04923028 1.68888476  60.92840141 -535.721017351837
0.96446195 1.72076535  67.66767058 -535.748104049433
0.91238949 1.75391367 103.00000000 -535.785816107951
1.09838701 1.68888476 105.56732001 -535.772548889036
0.91182675 1.68888476 108.48894406 -535.786908382209
0.96446195 1.55895387 130.83181943 -535.766133898261
0.91801183 2.03989224 103.00000000 -535.759516411848
1.01313701 1.68888476  62.35207875 -535.727900461948
0.96446195 2.13099374  91.80819107 -535.753275422488
1.07241727 1.50563232 103.00000000 -535.755798714282
0.96446195 1.49475932 117.72809281 -535.765610206108
0.96446195 1.93681021  96.50271794 -535.772980686431
0.96446195 1.93183549 111.72876059 -535.768175668986
0.96446195 1.81642821 130.21284472 -535.760634645843
0.94172402 1.55343308 103.00000000 -535.779371176955
1.08497572 1.68671760 103.00000000 -535.775244372509
1.12118055 1.68888476 105.74280499 -535.768013771516
0.96446195 1.56565330 120.86183876 -535.776549452686
1.11744255 1.68888476  94.45630005 -535.766874281170
0.76192287 1.68888476  74.73231732 -535.701213357623
0.92790283 1.68888476  96.19176163 -535.787256391094
0.87315468 2.08346764 103.00000000 -535.748102365983
0.96446195 1.72386078 109.11337387 -535.787110609435
0.96446195 1.88832267 118.45403142 -535.767310179130
1.17498739 1.68888476 119.80111627 -535.748607620833
0.96446195 1.70525709  83.78561994 -535.777411110228
0.83754513 1.75589445 103.00000000 -535.769993646715
0.88544233 1.68565017 103.00000000 -535.784373920508
1.16604877 1.82873965 103.00000000 -535.752447990478
0.96446195 1.75782867  97.45270869 -535.786871532559
0.96446195 1.89766285  71.84703703 -535.759350293072
1.00035132 1.74429044 103.00000000 -535.785691479430
1.09389912 1.68888476 109.73458470 -535.772245243742
0.96446195 1.72699560  90.68848994 -535.784544669833
1.03966023 1.89910679 103.00000000 -535.769650084062
0.83549851 2.18861892 103.00000000 -535.726386050888
1.03022504 1.65578239 103.00000000 -535.783305426713
1.16050217 1.68888476  82.36782134 -535.746953407016
0.96446195 1.68981975 118.95491559 -535.782067695686
0.86357458 1.95621237 103.00000000 -535.759670022564
0.83083910 2.15391667 103.00000000 -535.727975759693
0.96446195 1.55872726  70.93098825 -535.727571874942
0.96446195 1.64561350  96.94627655 -535.786572988397
1.05226390 1.68888476 119.92220496 -535.772674044553
0.96446195 1.91296777 108.98453896 -535.771859079400
1.23630111 1.68888476  83.15131385 -535.730478756871
0.96446195 1.63252495 104.67247047 -535.787934543524
0.99230170 1.68074613 103.00000000 -535.787654748633
0.96446195 1.79666202 103.46617042 -535.784639933274
0.96446195 1.89619627  95.00229986 -535.776762782470
1.50844238 1.68888476  97.91147302 -535.672696458248
0.88557390 1.68888476 112.27824091 -535.782037325774
0.96446195 1.53369969 145.41389104 -535.743908884420
0.86839787 1.68888476  72.92960819 -535.747898589159
1.03003655 1.68888476  74.14216648 -535.755999274725
1.22344462 1.68888476  84.69257313 -535.735290455160
0.89425022 1.68888476 149.74212611 -535.736397574406
1.48096040 1.68888476 115.60077686 -535.675950405762
0.90457625 1.68888476  73.06789142 -535.754698205244
1.10465414 1.79888724 103.00000000 -535.767431384306
1.07443095 1.68888476 141.85463039 -535.739941688383
0.90341594 1.78858712 103.00000000 -535.782775378663
1.04325858 1.55562823 103.00000000 -535.772043487804
0.96135897 1.68888476  77.75978191 -535.767302477793
0.96446195 1.91202517 115.74139980 -535.767249308344
0.98037413 1.68888476 114.42172974 -535.784768309524
0.96446195 1.78205672  72.41842479 -535.761649481417
0.96446195 1.97543082 102.66338502 -535.767973386150
0.96446195 1.91695567  77.47076962 -535.765309088587
1.17407682 1.68888476 107.64989790 -535.756059614818
0.96446195 2.01215646 100.92184482 -535.764547740631
0.96446195 1.69240169 110.63783209 -535.787427492796
0.96446195 1.49169231  72.85968224 -535.708777266051
0.75978926 1.68888476 131.03597016 -535.709681967523
0.93818206 1.68888476 127.83948097 -535.772909953496
0.96446195 1.49924894 127.59799045 -535.759822050720
0.96446195 1.61813367  76.16556308 -535.755510062404
0.96446195 1.60200273  89.25112665 -535.775845727716
0.91132441 1.68888476 118.80163294 -535.780847719282
0.96446195 1.95088497 113.06796911 -535.765198587721
0.99441746 1.82753201 103.00000000 -535.780856259597
0.96446195 2.03165628  85.12064835 -535.761525401057
0.86297026 1.68888476 147.53491918 -535.734422606058
0.96446195 1.60335466  84.24732594 -535.768879393565
0.96467324 1.84100847 103.00000000 -535.781220156884
0.99752084 1.57347983 103.00000000 -535.780236538026
0.96446195 1.49759970 120.92531422 -535.764639186792
1.35309919 1.68888476 110.41549142 -535.710916230898
1.45237271 1.72853667 103.00000000 -535.687240092987
1.08122561 1.73794283 103.00000000 -535.774975759892
0.94095704 1.85001023 103.00000000 -535.780429397177
0.96446195 1.84858903 107.92798395 -535.778810527507
0.91398437 1.54964800 103.00000000 -535.777458539788
1.20355814 1.68888476 107.46920015 -535.749213829869
0.80952860 1.68888476  96.74735544 -535.759248095443
0.78533891 1.93461141 103.00000000 -535.728643746087
1.32720672 1.75391715 103.00000000 -535.717893052122
1.04750338 1.68888476  83.02129484 -535.768537241080
0.89456167 1.68888476  85.84665104 -535.775551361430
0.91602505 1.81284541 103.00000000 -535.782237155592
1.14672122 1.74840861 103.00000000 -535.761595932889
0.96446195 1.60659091 105.99673714 -535.786269395200
0.98579237 1.68914685 103.00000000 -535.788124308925
0.96446195 2.10551827 115.08876695 -535.747630541153
0.96446195 1.66822281  81.78918733 -535.772465325452
1.04735270 1.60333163 103.00000000 -535.777743431185
0.96446195 1.77226157 121.78786325 -535.774753466611
1.31526220 1.67806437 103.00000000 -535.722009426993
0.98189715 1.45903966 103.00000000 -535.751387108242
1.17617841 1.56884568 103.00000000 -535.747770441129
1.07833213 2.20840063 103.00000000 -535.732728167668
1.22302097 1.68888476 110.73541597 -535.743369013792
0.96446195 1.95667404 117.18379890 -535.761269440727
1.30850105 1.68888476  83.37320011 -535.712954089900
0.96446195 2.13401349  99.20868183 -535.752266975513
0.84774977 1.65919206 103.00000000 -535.775424033977
1.00168877 1.68888476 105.41423676 -535.786716532347
1.26501168 1.79124570 103.00000000 -535.731534251873
0.97333400 1.69541002 103.00000000 -535.788777150255
1.19317272 1.68888476  93.84564619 -535.749934088820
1.12239768 1.68888476 125.01500660 -535.754787114543
1.22589693 1.68888476 122.21845682 -535.734303581828
1.04977444 1.68888476 104.76584733 -535.780961871364
0.94118927 1.45777200 103.00000000 -535.752317826776
1.07644675 1.68888476 120.15496969 -535.768511789519
0.96446195 1.88900679 114.29995362 -535.770810851125
1.27139531 1.72668858 103.00000000 -535.732811788707
1.07143841 1.68244259 103.00000000 -535.777595286195
0.96446195 1.58188034  89.35216769 -535.772878768673
0.94579852 2.08262760 103.00000000 -535.756426868645
0.82991225 1.47246849 103.00000000 -535.739376522938
1.23585263 1.68888476 117.68864741 -535.735936007889
1.12424231 1.68888476  81.04619877 -535.752721972668
0.87153124 1.68888476 140.58496369 -535.747590106031
0.98388256 1.51546862 103.00000000 -535.770043486517
0.96446195 1.79113551 134.97728575 -535.755962814626
1.06198659 1.68888476  94.60758210 -535.777019690190
1.13706590 1.68888476  99.98168364 -535.764704042531
0.96446195 1.83473005  73.12376800 -535.762922603394
0.96446195 1.87700439 135.76642592 -535.746625239534
1.29075279 1.67829701 103.00000000 -535.728236218113
1.01660048 1.82314303 103.00000000 -535.779188150628
1.04459056 1.68888476 132.85989280 -535.758627525235
0.96446195 1.62022623  67.91686399 -535.733956187965
0.77284784 1.68888476  64.19991572 -535.680249100164
1.05163678 1.68888476  79.59276147 -535.763003493549
1.04835337 1.56617826 103.00000000 -535.773012292126
0.98941726 1.72521351 103.00000000 -535.787251907133
0.80749115 1.68888476 107.63857359 -535.759210136250
1.09726778 1.48389772 103.00000000 -535.743231778925
0.96446195 1.76657463  83.17988066 -535.777367803729
0.96446195 1.62198507  57.67408913 -535.696425172657
0.80570622 1.68888476 137.36871143 -535.730021260450
0.96446195 1.86035506 119.70253857 -535.768941892841
1.29508116 1.68888476 100.64422256 -535.727131981966
0.96446195 1.68989521 112.17670446 -535.786742276961
1.03122837 1.63605184 103.00000000 -535.782370505365
0.87874869 1.68888476 110.15646088 -535.781797478903
0.96446195 1.98149121  89.64700715 -535.767752324454
1.02719462 1.62623725 103.00000000 -535.782318228191
0.93723189 1.68888476  99.64225372 -535.788787657110
0.82171817 1.68888476 102.85787832 -535.766197908419
1.07102379 1.68888476 103.19508389 -535.777679220952
0.86016110 1.83314900 103.00000000 -535.771209300300
1.25271503 1.68888476 118.98844735 -535.730730491624
1.14859123 1.68888476 133.76732067 -535.737913125715
1.00894941 1.68888476 120.91634861 -535.777307752883
0.96446195 1.80986763  60.24135026 -535.735208224756
0.75040520 1.68888476 128.61010311 -535.705004400141
0.93521320 1.85813475 103.00000000 -535.779510034684
1.04253441 1.85677346 103.00000000 -535.773205839017
1.48993351 1.71596573 103.00000000 -535.677938995828
0.90760897 1.68888476  75.67570083 -535.760712324134
1.09438999 1.65601223 103.00000000 -535.773012415588
0.70890453 1.70049869 103.00000000 -535.678121565826
1.07607388 1.87397928 103.00000000 -535.766526353687
0.96446195 1.44497730  97.79450595 -535.741409744479
1.19286713 1.68888476 124.37839812 -535.739909992017
0.96446195 1.74031810 100.24843084 -535.787953801088
0.92593240 1.71922596 103.00000000 -535.788206783789
0.96446195 1.63797420 102.32357664 -535.787981694685
1.36833496 1.68888476  93.06005660 -535.705871682271
0.88554863 2.05383714 103.00000000 -535.753758624374
1.20524222 1.68888476 114.79060712 -535.745419634949
1.13138896 1.68888476  90.68344775 -535.761613029690
0.96446195 1.82306381  93.76530813 -535.782336557139
0.96446195 1.73077157 137.58131827 -535.756726333425
0.69958297 1.68888476 110.02914454 -535.665183670091
0.96446195 1.66895679 147.83430208 -535.743509777562
0.96446195 1.71570331  73.06634966 -535.760075960863
1.07231703 1.67530163 103.00000000 -535.777384974433
0.96446195 1.98786167 114.70812736 -535.759996415212
1.05617353 1.62109526 103.00000000 -535.777865344124
0.96446195 1.87566209 132.25653826 -535.752014884873
0.84997923 1.84865473 103.00000000 -535.766940843009
0.96446195 1.87768031 130.45268539 -535.754364168460
0.96446195 1.71441264 109.01876489 -535.787498406114
0.96446195 1.59873740  70.11119707 -535.735778908396
0.96446195 1.85495223 106.21417456 -535.778965997641
1.11741536 1.49729371 103.00000000 -535.743647232600
0.94083078 1.68888476 116.63453350 -535.784109795864
0.96446195 1.92860130  92.72863553 -535.773446542919
0.71782412 1.68888476 102.40301027 -535.688968899681
0.75811882 1.68888476 128.72753873 -535.711275171799
0.87789084 1.73665645  96.96454472 -535.781113854341
1.18044344 1.73757970  90.00907506 -535.750903258182
0.82764025 1.68001183 118.53494813 -535.762451072064
1.01481293 1.66526540 136.38767225 -535.758090953752
0.92828653 1.79294270 135.89775046 -535.753965810102
0.84307490 1.54012057 100.19516451 -535.760827174308
1.00390405 1.63894062 106.29512621 -535.785622881563
1.11495342 1.85588294  97.45764629 -535.761596035431
0.92027462 1.89441733  90.81306439 -535.774867146331
0.85585193 1.76421002  88.42192764 -535.770481290968
1.02654648 1.97453086  96.14128351 -535.764796562070
1.17662035 1.62402748  92.33993778 -535.748923615189
0.86814764 1.74094009  76.07805317 -535.757753683771
0.73004504 1.71254982 111.90750374 -535.699384407839
1.29647910 1.64819208  91.68714592 -535.721102315959
0.90347458 1.64436406 109.40365109 -535.785655335285
0.87703481 1.64424752 120.13096518 -535.775616155370
1.12517589 1.83784234 101.91305024 -535.760683964698
0.99447775 1.74116910  95.69164582 -535.785396654436
0.89055995 1.68817312 119.72005320 -535.777619044457
0.94678790 1.66233599  96.84728883 -535.787477601443
1.01978179 1.74726306 118.40719953 -535.775766260128
0.96098855 1.83388861 118.24710623 -535.772985930507
0.96844811 1.84409379  63.77506822 -535.745247259959
1.02141166 1.63209403 118.96893304 -535.777755847368
0.96335199 1.59871876  66.71493951 -535.725058245372
0.89247483 1.66778441  85.19345240 -535.773264640354
0.93186844 1.66890715  71.70184898 -535.751676935539
0.73258273 1.45019304  99.82584247 -535.664534571875
1.25173022 1.72274284 114.98994391 -535.733121675051
1.02390183 1.47378903 107.94173595 -535.754872836907
1.09518122 1.84435486 104.46134198 -535.765367060450
0.72788484 1.68184112 117.58553533 -535.694828719547
0.97642557 1.72361466  80.68041035 -535.773433619632
0.97835144 1.81222538 124.98684498 -535.767255387243
0.88456236 2.14632023 104.71430180 -535.743317784416
0.94835395 1.53702668  95.90166125 -535.771555556506
0.91526968 1.47771299 115.25651188 -535.761008016335
0.97202870 1.55112481 129.53135998 -535.766384717555
1.12539359 1.70582749  77.03230917 -535.747558198056
1.15251656 1.47467171 105.31006174 -535.727403254820
0.97286142 1.47092324 132.81139567 -535.746773780501
1.32379636 1.68546619 127.57469107 -535.704265936248
0.92337492 1.57952141 100.45368510 -535.781701059828
1.34783685 1.73291625 112.46225806 -535.710303764117
0.96386261 1.66135595 128.76024546 -535.772416345261
0.99016657 1.71138792 139.80046192 -535.753075067149
1.11035745 1.94346812  99.70012997 -535.754346642839
1.04917444 1.82523542  94.92541296 -535.774913441377
0.95413055 1.70245262 102.73968705 -535.789209805192
0.85030474 1.60312517  95.96791131 -535.769830146787
1.04683385 1.68947370 107.87771045 -535.780774758872
0.96922488 1.68384635 109.36959232 -535.787899815718
0.97024553 1.60395775 118.64411616 -535.781152990766
1.02526514 1.65713106 138.91529349 -535.753184967746
1.04434240 1.68032110  77.28364707 -535.759480584619
1.12884251 1.70888612 127.72611275 -535.749541882836
0.89027806 1.71715079  84.62627234 -535.774306191669
0.95943481 1.94446364 118.34950011 -535.761584132189
1.16618310 1.80151898  99.32671610 -535.754713414679
1.08470472 1.65180558  74.18829528 -535.744647649866
1.02530461 2.08940972 107.79330678 -535.749640355856
1.10645310 1.69282971 135.22896112 -535.744359443566
1.03749769 1.89785147 108.78111653 -535.767691614418
0.95350098 1.51770138  74.55457733 -535.724747913977
1.07665846 1.69696192 131.93428716 -535.754481453422
0.86620430 1.79541942  96.89442749 -535.775742658231
0.80923153 1.65498640 109.60020931 -535.759731574457
1.23881368 1.79625764 107.59805436 -535.736332969992
0.90480291 1.66552207 113.53296717 -535.784298439552
0.95754183 1.46796103  97.87440192 -535.751960675851
1.00691201 1.62976908  99.60629661 -535.783989846380
0.95709825 2.00366467 102.75106198 -535.765011019166
0.86635965 1.72136985  69.70873171 -535.742598824739
0.88672991 1.59150825 108.73864628 -535.780561530988
1.36133287 1.70053830 112.64178985 -535.707677291782
0.75086190 1.82414663 101.75172510 -535.714422088113
1.17163311 1.68180845 105.85013424 -535.757028729976
1.04343353 1.90948671 106.53409432 -535.766835087309
1.06506597 1.72770019  70.74297794 -535.747805648999
0.95777236 1.65510760  90.57637631 -535.782660092874
1.03547720 1.58471498  93.53019541 -535.771964338520
1.23946669 1.71919762 107.63565341 -535.739983751546
0.90824477 1.60893945 128.27615143 -535.771194656326
1.11602793 1.64276992 112.61172509 -535.766314687705
0.93533122 1.73391187  82.36077580 -535.776072531777
0.90039097 1.54279958 103.36584864 -535.775004435771
0.98905141 1.73508926  87.65790715 -535.780960118529
1.00633202 1.79749738 116.28670797 -535.775346095577
0.89668447 1.67426724  95.25608049 -535.783681002331
1.14506044 1.91511065 105.44483679 -535.748539013300
0.85754088 1.78636740  97.89093880 -535.774273548204
0.99833562 1.74130108  92.55152531 -535.783694528727
1.38340515 1.80525042 104.65085246 -535.700663000975
1.11111180 1.71851477  85.00652104 -535.761285969567
0.84019616 2.06091045 106.64622106 -535.739649500476
1.14132591 1.99008519 101.54167612 -535.742995119109
1.48827861 1.53022231 100.28193269 -535.672973838909
1.40506827 1.69542356 124.49960665 -535.687322948128
0.90390506 1.76394227 113.03856503 -535.780485454437
0.80524095 1.67645796 108.68548799 -535.758000195853
0.98045200 2.01035198  80.36420597 -535.760405536151
1.24376407 1.66407100  94.62365403 -535.737308528429
0.92958840 1.67619420  73.51389629 -535.756712896342
1.02547705 1.72363833  60.98988167 -535.727754176532
0.97022724 1.58352759 121.54630175 -535.777481951287
1.10299654 1.75899935 107.13691379 -535.769092575837
0.77544469 1.55347814 101.84776903 -535.731528966110
0.89703367 1.90447339 111.02877453 -535.767916412997
0.93389435 1.67337612  87.56726413 -535.780324705030
0.94601570 1.99077691  73.26576456 -535.756214333533
0.92183438 1.68577586 100.62349969 -535.788268197843
0.88257331 1.62040264 107.26423207 -535.782161804250
0.92012875 1.70104575  76.42495353 -535.764342555293
0.85327277 1.44879926 110.59625562 -535.740825162693
0.93897335 1.81767287  96.36367701 -535.783252376798
0.91735855 1.65258031 124.43563264 -535.776686937965
0.79369845 1.69696814 114.39188419 -535.748696093981
1.01889299 1.71619926  97.80738113 -535.784229900609
1.10706289 1.70298919 100.43384062 -535.770908664436
0.96824513 2.07685545  92.99747792 -535.758622381453
0.89467426 1.65829518 107.73225000 -535.785234327337
0.90550101 1.61183674  78.31649042 -535.756430148477
0.95385730 1.83767997  86.89062536 -535.778214271544
0.98737206 1.94523298  96.24248496 -535.771212329881
0.95192915 1.64749323 125.33985595 -535.776758843098
1.10791999 1.62953261 111.04232847 -535.768123573135
0.92326807 1.64706627 108.54206198 -535.787591745232
1.03523401 1.73945647 121.70488497 -535.771182924602
1.00482206 1.61180937 136.71826079 -535.758798336638
1.08859402 1.60762772  94.70774264 -535.767471056224
0.88746226 1.69408913 111.97049265 -535.782371513599
1.08277643 1.71308150 112.89477944 -535.772170662644
1.29182222 1.63092838 104.03471822 -535.726012242965
1.30764126 1.60481139 101.81456240 -535.718697498264
1.03001011 1.67618686 113.59889029 -535.780727384364
0.89748311 1.75013072  88.63864589 -535.779420485622
1.05860279 1.70250808  79.64634081 -535.762899653991
0.81925045 1.71901395  70.74241966 -535.728919856105
1.41162484 1.68337942 121.12741419 -535.689092754001
0.91120434 1.87623778 108.75590400 -535.773884388441
1.06391315 1.50655508 110.06330341 -535.759171463451
1.24355857 2.04935021 102.64791067 -535.713287850200
1.01752708 1.63192606 137.74795970 -535.756152221539
1.08842503 1.44541997 101.57862132 -535.727144111442
0.96764729 1.81080403 120.53020165 -535.772735862905
0.98721226 1.65220620 110.57812649 -535.786381879449
1.08538245 1.48171282  95.76433776 -535.738900645533
0.77750294 1.56348989  96.78575827 -535.731275176631
0.86140590 1.67972952  99.93893104 -535.778963724517
0.88256074 1.78097909  85.14056179 -535.773251173571
0.96839349 1.46526967 122.01264541 -535.754395661547
0.91063215 1.70691637 139.76591201 -535.753470897638
0.86828210 1.94306550 102.21954922 -535.762473138706
1.02127607 1.95251555 102.07438423 -535.766743287299
1.28151281 1.61211140 104.08769701 -535.727059572388
0.91339705 1.53347992 109.01548558 -535.775517476093
1.03824371 1.60180512 106.87429322 -535.779173414326
0.92529418 1.70273963 105.23552118 -535.788366254908
1.00426206 1.66737565 123.44098266 -535.775725346051
1.06993066 1.66341927  76.71737770 -535.753238781297
1.03328833 1.98979294  98.75001282 -535.762191187739
1.24717592 1.66983848  96.28200448 -535.737512921493
1.24267375 1.84142640 103.20088889 -535.733411376995
0.88551986 1.72084810 115.36795453 -535.778940442225
1.03994602 2.15071021  99.16568377 -535.744816342213
1.05865099 1.66956579 124.24062977 -535.767783445374
1.01317727 1.60197542 113.32101667 -535.780717207108
0.97107175 1.69293179 120.85770360 -535.780016266233
1.02326611 1.77003752  80.72689652 -535.770454558851
0.87250617 1.67256807  99.63654014 -535.781355496627
0.99222067 1.77418703 126.91770514 -535.767276056768
1.07054359 1.67468391  97.72414729 -535.776689736146
1.02661597 1.73197721  82.59034111 -535.772139709039
0.94455878 1.84122837 127.45924186 -535.762021503676
0.98092802 1.58891243 104.73095699 -535.783742761172
0.87205161 2.02783766 101.05854153 -535.754448052891
1.28747012 1.69384924  96.15776336 -535.728009165256
1.14862745 1.67876061 121.48395559 -535.753128431767
0.84348944 1.61188711 116.61624579 -535.768968168774
1.24779018 1.68048573 119.48648402 -535.731634838902
0.88843268 1.77328823  89.36554303 -535.778013432000
0.87643664 1.96232278 102.75797020 -535.762042420831
1.02863374 1.88838856 107.42322174 -535.770423068365
0.99024267 1.84753219  65.59693126 -535.748558827253
0.99750975 1.76822419  69.05625960 -535.753392035437
0.85535239 1.71848460 113.76205569 -535.773540269654
1.00463711 1.48186702 118.91703113 -535.758407145808
1.08747273 1.44691736  99.93346884 -535.726619139236
1.01773952 1.68722147  63.57197011 -535.731048051013
0.98004626 1.99084426 133.76710988 -535.738381450451
1.34768311 1.54650650 102.98129615 -535.701664016453
1.13610551 1.65233504  88.60602979 -535.756909101471
0.95201845 1.71080736  82.30674969 -535.775766980619
0.88972789 1.50977655  99.65171126 -535.763845813858
1.21735740 1.69306973 107.95998103 -535.745736514307
1.01439643 1.48982390 114.97550242 -535.761141436512
0.94838730 1.61759838  85.33618767 -535.772748648159
0.95393765 1.70708769  83.81920376 -535.777641068657
0.99752949 2.04202982 105.86255971 -535.758062862056
0.96200476 1.64252384 100.00994572 -535.787728244430
1.03289313 1.61545662 122.48069687 -535.772713965128
0.97238970 1.84524525  82.36127640 -535.773854663884
0.94233713 1.48505186 144.90427381 -535.736797951826
1.28429277 1.65777694 118.35656363 -535.723454790596
0.79023655 1.69056215  72.00796716 -535.714404839174
1.08381029 1.65651447  97.54948837 -535.773709990272
0.97205937 1.56053703  96.37389735 -535.776266961328
0.87934883 1.80378534 100.77544085 -535.778227707615
1.01941790 1.48788896 102.77270433 -535.758354035607
0.86727995 1.67561891 102.52686931 -535.780759570077
0.99581087 1.75028956  98.73617772 -535.785730323202
0.90571259 1.62967251  68.85223625 -535.735014139663
1.26483841 1.59395928 105.33033678 -535.729410722520
0.98719029 2.12133542  91.73921232 -535.753374151920
1.19399412 1.66664968  86.24150956 -535.742612139855
1.23561141 1.98379898 104.27014430 -535.721375111181
0.95940035 1.58755802 141.08974259 -535.754773292481
1.11079423 1.71036028  95.75217494 -535.768968580615
0.95859337 1.69029821  61.58205476 -535.726463430820
0.82868823 1.62560039  88.95748754 -535.757982857728
0.94329416 1.86870523  98.59766977 -535.779399105967
1.00225496 1.61173473 127.95349751 -535.770440057087
0.91616694 1.52623211 119.91230346 -535.770869942538
0.85428205 1.70035051 112.54253366 -535.774706804511
0.92827979 1.72067463 110.32596820 -535.786403251014
1.15891186 1.65503860 111.21095810 -535.758039957706
1.27534719 1.72160136 110.61215642 -535.729855328269
1.37756100 1.70616605 103.48745132 -535.706293555516
0.89690075 2.08400814 104.44091610 -535.751847533778
1.01175278 1.72958023 138.42282961 -535.752191074079
0.88393715 1.67561573 116.45246514 -535.779486181495
0.90841039 1.59685646 122.76391166 -535.776264207564
0.96547318 1.68048762  92.95427919 -535.785587233259
1.03403957 1.63489888 111.80009477 -535.780569065264
0.76349767 1.73054897 116.39296352 -535.725483972246
0.87774266 1.51969912 112.42184227 -535.767855016536
0.94199601 1.59017416  67.18961519 -535.723710998225
0.93258323 1.68706402 127.03244874 -535.773794641033
0.96595680 1.70014658 141.63564619 -535.752111401279
0.86873441 1.78879450 105.64826069 -535.776251279058
0.96885718 1.76780974 108.74184333 -535.784796459780
1.21397320 1.69355516  87.70139633 -535.740729502785
1.06477332 1.63413606 109.94691702 -535.776588462440
0.99952293 1.67002787 132.88654873 -535.764574733978
1.06899918 1.74544837 102.42586669 -535.776822292683
1.08244594 1.72916338 128.68057542 -535.756293336245
0.73266075 1.83360159 102.76520946 -535.696234380130
1.02455718 1.65129131 113.12448600 -535.781588261856
1.01724672 2.22408476 103.17748881 -535.739479584684
0.93014136 1.63857653 106.80228031 -535.787976140192
1.40421680 1.58929243 104.44706085 -535.695014450406
0.84475849 1.64419332  96.54339589 -535.771833894965
1.00212988 1.67711843 107.33125487 -535.786361323690
0.75796149 1.66905869 111.02920181 -535.726723036769
0.97588658 1.96936974  99.69304623 -535.769001925173
0.78163861 1.60396975 112.42296256 -535.741756364605
1.00593452 1.73980036  65.26970990 -535.742361628329
1.02768986 1.54912543  89.10944857 -535.761026186528
1.02013469 1.72323567  79.43145266 -535.768354257246
0.73432744 1.70236493 127.64007636 -535.690501594994
0.80271287 1.73617795 109.39581099 -535.754364401685
0.92848298 1.65040867  65.90879140 -535.732156982104
1.29007636 1.69058861  81.04366513 -535.714932513670
0.90176910 1.62246511  75.02673846 -535.750151792532
0.98015009 1.73804365 111.38474720 -535.784727698281
0.88007866 1.63542090  95.33162778 -535.779271624848
0.98817256 1.92458237 125.49418338 -535.755059758014
0.85832107 1.73513719  86.54823659 -535.769886969843
1.13176151 1.82308498  99.81703085 -535.760682738703
1.02826045 1.63936070 108.11593637 -535.782640955219
0.89621707 1.72706795  85.46191897 -535.776305782558
1.34189195 1.67224991 124.05984558 -535.703791497643
0.90039382 1.80962507 102.82022170 -535.780884870167
1.01339785 1.80655215 112.30049638 -535.776854260234
0.98446094 1.62041962  76.04437009 -535.755013213448
1.28718956 1.66758041  96.26504120 -535.727389745279
1.03552358 1.69740636  94.25816800 -535.780817112437
0.95302121 1.92333813 123.85943116 -535.758132520068
0.82537624 1.64898009  75.42339710 -535.735363798907
1.02520921 1.76779201 100.05887002 -535.782130960712
1.43966732 1.60054722 106.87340507 -535.689342920240
0.97290634 1.84472597  95.57095627 -535.780926224538
1.51917437 1.89337678 103.30488119 -535.660946476082
1.05788224 1.73438216 105.33071884 -535.778626611659
0.87606536 2.05560984  97.62973652 -535.753043182694
0.93823238 1.91937570  82.96274821 -535.769716196280
1.00895247 1.96006007 106.74451146 -535.765448503774
1.08821098 1.92039650  98.03310985 -535.760883679642
0.95715949 1.69240603 103.83464100 -535.789264281055
1.22010262 2.00409400 102.37183638 -535.723611771328
1.12358178 1.72666962  93.15424650 -535.765161450106
1.04077786 1.87403708  95.01651214 -535.772392011452
1.16575543 1.83621727 100.80684796 -535.752293995838
0.79036027 1.66801162 121.53168566 -535.742127652477
0.95636372 1.45614596 117.46248466 -535.753713466003
0.95129781 1.91687694  97.20298561 -535.775029144240
1.00477266 1.81243143 123.29474339 -535.767347278260
0.96488777 1.79476285  96.91768139 -535.784862219022
1.34046852 1.67844874 114.54806269 -535.712022616491
1.02836303 1.76277030 117.65688808 -535.774404761374
0.92908963 1.82336568 103.23014414 -535.782221516845
1.02251010 1.62158643 121.03880016 -535.775582019008
0.89271322 1.57522003  90.19153282 -535.769079034133
1.30505453 1.81479549 102.80110928 -535.720047712944
0.97867422 1.56366045 110.37647466 -535.780636316065
0.86394863 1.79871329 108.65361366 -535.773193265756
0.94541352 1.90275615 150.22500127 -535.719083178406
1.00004910 1.72824684 113.16586260 -535.782750387885
1.53482466 1.73375886 108.13869874 -535.665901888233
0.91689314 1.76116194  75.16588608 -535.764437712469
0.96178009 1.96815164 142.01934024 -535.728325259171
0.84332436 1.80143336  94.35324552 -535.768269438080
1.15207783 1.69382055  59.09380937 -535.704955040489
0.94818479 1.64816313  79.89103439 -535.767382295572
0.80316385 1.74311586 113.90005321 -535.751732713196
0.93651102 1.71489603 106.47690868 -535.788285666331
0.93133524 1.74229424 121.66646139 -535.776820429512
0.89920600 1.94016188  99.70133711 -535.769004637202
1.14790573 1.70361187 122.70218250 -535.751443368346
0.74470400 1.86318051 105.83685949 -535.704072675884
0.94270558 1.70137016  90.19120500 -535.784090578302
1.04161083 1.58989439 100.84886652 -535.776532027037
0.99655252 1.84717364  96.66062140 -535.779494814103
0.85677546 1.70698758  73.13961252 -535.746990112285
1.05324102 1.67182965  82.22707994 -535.765535482568
1.36605991 1.67989251  86.53771150 -535.700993062162
1.17103289 1.71525991  77.00458514 -535.738683674033
0.86920520 2.22055412  98.74052976 -535.734777862326
0.93085645 1.80266383  93.55516698 -535.783181389424
0.82807787 1.77656993 105.18064389 -535.764774291217
0.97205639 1.65667596 130.60901512 -535.769826067527
1.16903369 1.68325481  89.80032983 -535.752568118461
1.10993420 1.66512069 132.20003829 -535.748786649031
1.14666943 1.62754700 113.29419774 -535.758929319075
1.10765258 1.69128370  92.56927051 -535.767768655447
0.84572907 1.62116724  85.26661747 -535.758318711792
0.96036119 1.44829285 112.91693560 -535.751198395004
0.97758932 1.51155580 108.78356934 -535.770969492648
0.92277143 1.72306816  66.54073789 -535.743673658540
0.92648707 1.83715251 112.68904145 -535.776516270561
0.97629535 1.87136759 140.73943407 -535.738721292419
1.07871887 1.65191301  79.21588758 -535.755049822311
0.99231356 1.72590263 128.20808318 -535.768995569539
1.01105549 1.74428828  69.38523985 -535.751944933264
0.92112546 1.56132571 110.33470267 -535.780553337643
1.28238816 1.87575752 100.55043496 -535.721263131906
0.83875773 2.15092838 105.78064396 -535.730179085656
1.21167806 1.71650150 122.13205303 -535.736957882721
1.09759786 1.49116572 104.31223427 -535.746639054335
0.91341649 1.71051893 127.32246754 -535.771235511098
0.96960179 2.26138961 109.42460381 -535.736966729424
0.92999546 1.77354161 119.65552200 -535.776496880415
1.11279033 1.69788408 141.35592907 -535.733169693683
0.95345649 1.92241991 117.33653743 -535.764873745396
1.11447319 1.75457766 108.57212886 -535.766538566367
0.74070008 1.90259971 103.72442431 -535.696855356388
0.73463084 1.74036855 107.27384396 -535.704427374620
0.92176253 1.79967563  84.78948579 -535.777240612739
0.94324783 1.90182347  73.08856419 -535.760760756252
0.92807476 1.72063833 115.50949820 -535.783319599609
1.07332248 1.69018195 109.52719833 -535.776001407402
0.97271245 1.87687371 120.70322929 -535.766023518415
1.26707008 1.70206507  95.07831424 -535.732790638838
0.92820093 2.04192724  96.20221546 -535.761494990963
1.14263619 1.50772799  97.77639514 -535.737382504831
1.10884305 1.71764769 124.18090223 -535.757385632864
1.02810563 1.76869001 101.88422689 -535.781692585641
1.04467350 1.64435013  71.49831174 -535.743217254191
1.04457735 1.75096998 123.77062405 -535.766966676698
1.19454766 1.68897221 100.51108704 -535.751840088221
1.18461145 1.62265660 106.93663009 -535.751973290091
0.89646724 2.12315792 103.23320081 -535.748177376513
0.84066267 1.70290075  83.48523256 -535.760357438262
0.83997025 1.40782835 108.36619554 -535.716346655472
1.11420564 1.67786537 126.36448111 -535.755160869395
1.34345662 1.75519770 106.91077353 -535.712897436685
0.71203318 1.80416109 104.17974594 -535.675605713072
0.78237460 1.66940676  96.63509228 -535.743753471915
0.95077294 2.16066570  96.30309112 -535.750185400118
1.43242390 1.66177396 102.27064155 -535.690602867548
1.41020405 1.67102619  87.08021974 -535.688753411600
0.99981211 1.60922037  96.65587574 -535.781465386619
1.02082859 1.73820613  93.34703512 -535.781968427479
1.07366521 1.70841627  76.02516642 -535.755136676206
0.95603836 1.62290044  70.92305322 -535.743190086236
1.23556215 1.67874600 126.40712482 -535.727608641329
0.97689052 1.87338513  70.89199848 -535.758367978542
0.93929007 1.94011004 101.77708069 -535.771822222620
1.18986719 1.64312349  96.34990343 -535.750064705620
1.01941225 1.58398223 121.25760977 -535.773560528514
0.84086929 1.79230280 105.72262447 -535.768133234204
1.04940589 1.67444649  64.76903460 -535.729971264951
1.32875489 1.69214734  75.06836991 -535.697683446173
0.96456858 1.89085554 127.86872036 -535.756495703398
1.50622248 1.62327241  98.78891019 -535.675631096371
0.80005035 1.64894510  97.40443328 -535.753807337236
1.01133801 1.63511969 107.85199192 -535.784499895945
1.23500716 1.70552643 116.37745386 -535.736781166021
0.96316444 1.44019986 106.58252453 -535.746061897380
0.78603225 1.74403064 100.66460596 -535.746055318979
1.05732743 1.60888195  96.54600712 -535.774185436556
1.03344148 1.85444644  95.51340669 -535.775002018703
0.83090144 1.74954318  84.84190404 -535.759154080304
1.02330467 1.83994472  96.53953266 -535.777468467088
0.82813737 1.71479684 132.96726685 -535.744650793145
1.18277683 1.82412614 107.57774401 -535.747554461472
0.98786687 1.74052307 125.18020270 -535.772122696125
0.94068523 1.56450288 134.51593396 -535.762556228897
0.84005144 2.18601887 100.05280735 -535.729147692073
0.97456886 1.58676886  79.24809038 -535.756173438807
1.35427022 1.70007693  91.43240797 -535.708830221614
0.97788563 1.76309301  66.73069171 -535.748797162939
1.11926035 1.64302547  93.97894635 -535.764232601829
0.88603828 2.05366038  97.32708457 -535.755232695285
0.95359322 1.70409657  84.65879820 -535.778588183345
0.93148865 2.09737109 107.56302292 -535.752440460303
1.50916956 1.74349831 100.61281251 -535.672978523204
1.14664511 1.70130778  86.41212274 -535.755044108587
0.95972890 1.50659304 116.06410744 -535.769413842965
0.92639138 1.65424763  84.01340000 -535.774028063071
0.75778198 1.64049228 116.79688773 -535.723615110534
0.86033074 1.81155326 104.60998346 -535.772706985193
1.04103040 1.90692400 103.91715682 -535.768422810470
0.89533005 1.43908425 105.29917836 -535.742693998523
1.08482281 1.68602965  56.89452083 -535.704645316244
0.87364795 1.62921977 120.25232085 -535.774662362575
0.91762828 1.69671450 126.94524190 -535.772704628382
0.97981823 1.77336312  82.20530929 -535.775664979331
0.95785222 2.03824453  71.37105146 -535.751244405095
1.06157415 1.72008941 138.51684806 -535.745951840759
1.05478972 1.68046768 113.97009380 -535.776947760865
1.41912773 1.69929129 127.12947226 -535.680906231814
0.95141464 1.91985095 102.78225968 -535.773868642207
1.33219972 1.84096956 101.09487977 -535.711585587469
1.39492337 1.64726242  99.72227108 -535.699001261293
1.00042857 1.75759678 120.49552216 -535.775072032696
0.92873329 1.58478319  86.58433884 -535.769079759085
0.99574574 1.68323938 120.83760657 -535.778752019461
1.09875109 1.70426744  76.33936405 -535.751255126543
1.34448452 1.67139172  99.29558552 -535.713897839033
0.99565985 1.75300671 140.11320217 -535.749228643386
0.87233156 1.67381692  66.81378070 -535.730476362837
0.84154588 1.67615512  84.92558090 -535.761373114211
1.07839996 1.60936956 109.99853364 -535.772851665633
1.30867241 1.72100009  95.07662888 -535.722389728811
0.88828731 1.70525268 116.14641192 -535.779534355401
0.94926758 1.51782298  63.52222420 -535.684172457727
0.92884855 1.98221955  92.35556413 -535.767591213089
1.06310738 1.57823411 112.50437842 -535.771885445657
0.96676450 2.01509334 140.31858505 -535.727323017641
0.90205607 1.82513485  97.89108666 -535.780158708832
0.98942011 1.65815057  90.19653831 -535.781155840866
0.94531675 2.07843592 120.23148538 -535.746036348614
0.82348409 2.14898595 103.57366746 -535.725242065659
0.89377249 1.58441369  82.29438661 -535.758120069027
1.20491235 1.75987316 100.99773238 -535.747989304422
0.97826137 1.78812003  83.72390769 -535.777093146398
1.14413881 1.79564803  97.55311591 -535.759789296641
1.29810075 1.66470081  92.95684617 -535.722709376326
1.22794891 1.68890912 138.63271453 -535.712154174594
0.95091034 1.81270836  78.71321322 -535.771330269798
0.84037827 1.76883554 109.40490668 -535.768299408227
1.09663800 1.84451194 108.88145528 -535.763286520366
0.84809699 1.64947703 119.60549116 -535.769050896715
1.27183275 1.74309720 101.28490384 -535.732303178370
0.99981638 1.85987579 123.44654495 -535.763141336668
1.27385982 1.68226777  66.28959197 -535.696559185939
0.92740143 1.88875212 106.09683159 -535.775141244345
1.06179407 1.68442481 130.30911540 -535.759634383583
0.93356609 1.77086076 145.30020125 -535.740447397737
0.85704282 2.13602560 107.00566099 -535.736960660180
1.13667803 1.66784285  73.20411184 -535.735488576096
0.94755125 2.02134677  77.49435714 -535.757960508458
0.93793943 1.50005744  94.96273200 -535.760345484297
1.00739530 1.75927233  82.91483638 -535.774664456783
1.06262246 1.66677215 121.44559739 -535.770007456102
0.97827481 1.65821775  85.80575564 -535.776928307824
1.53528126 1.70813423 115.86827620 -535.662546988481
1.01537036 1.74020458  70.86797930 -535.754472576954
0.96820779 2.18885690  81.06259342 -535.745785447636
0.80886521 1.66246840 122.86532297 -535.750848985910
1.01241675 1.64651132 107.08301926 -535.784931377149
0.99041383 1.67265291  77.68768800 -535.764757247129
0.92942880 1.68405583 146.37324688 -535.745221985725
0.92780837 1.71922114 120.97827097 -535.778721657750
1.04990031 1.71245770  73.92283225 -535.755026229522
0.98490766 1.78076494  95.41803993 -535.784430967251
1.09658709 1.69929867 124.37124451 -535.760273595738
0.94677031 1.54839389 114.70060730 -535.778205260347
0.95759089 1.65000260  94.97143969 -535.785831026524
0.94061094 1.45897860  67.28217155 -535.669845518786
0.98555942 1.44949191  78.54750280 -535.704699341380
1.01339207 1.64603847  98.86889893 -535.784012603586
0.76676416 1.67121768 121.02200144 -535.726905051829
0.95764194 1.61368471  97.95380971 -535.784935024588
0.81023578 1.79436082 112.90413178 -535.751962451823
1.07938209 1.70752399 143.04772753 -535.736140748688
1.28105741 1.69134808  76.99034593 -535.711888173144
0.98207268 1.78531947  99.00679883 -535.784963479930
0.94994987 1.65941031  94.47138075 -535.786037180819
0.83386338 1.62669739  93.87015339 -535.765076654067
0.73603064 1.75391780 100.29059319 -535.705878881809
0.82957392 1.70886752 103.30269019 -535.769006789905
0.88440024 1.59163517  91.73162635 -535.772248510575
0.90656108 1.58543526  97.20792577 -535.779297905206
0.98404609 1.74546687  90.92191006 -535.783657347077
0.85654111 1.61640116  86.82368589 -535.763216602133
0.85931404 1.66487516  96.55283444 -535.776881135829
1.00772299 1.51979872  88.81008011 -535.754993621447
1.01950228 1.83637519 117.27308488 -535.769765563530
0.84799635 1.68319866  79.49526248 -535.755377514369
0.89715604 1.81936767  94.87605261 -535.779462330112
0.90114550 1.91381304  99.39113521 -535.772002805845
0.94765435 1.45849944 135.05878237 -535.741532211802
1.38381089 1.71265993 102.17936268 -535.704712650314
1.37798392 1.68236027 132.38958573 -535.684703112475
0.87446810 1.71643072  77.48274692 -535.760677472967
1.28212539 2.16399015 101.58210890 -535.692917001568
1.02866528 1.84742232 108.32171574 -535.773873569919
0.97896259 1.54456547 138.05626569 -535.754637087054
1.07733547 1.67735560 122.14910976 -535.766696282401
1.17741403 1.62732222  93.39376255 -535.749887390546
1.26813425 1.67338032  96.39822132 -535.732464806619
1.01065319 1.66278971  88.39710725 -535.777854916594
1.11796192 1.69531055  91.81026730 -535.765323373507
1.06154553 1.91446292  98.10516741 -535.765872447321
0.93332518 1.66164668 107.71627363 -535.788497748121
1.21198571 1.62042040 104.05417366 -535.745344590399
1.03631518 1.57681994  93.13329105 -535.770221105829
1.37079162 1.70206299 127.46317424 -535.692345820753
0.90745139 1.69982720 138.27193557 -535.755959668945
1.11084821 1.84260401  99.27283504 -535.763443069764
0.96839367 1.58915424 111.98064019 -535.783644223210
0.98881633 1.51825558 107.82937671 -535.771722122985
0.86078179 1.85634881 102.20088067 -535.769429714608
0.92608979 1.95501792 114.36966641 -535.762991422167
0.95381277 1.67805434 107.31277718 -535.788906796572
1.26021116 2.02477452 103.35780648 -535.711535155888
0.85628165 1.71115345  73.42598123 -535.747804189532
0.96158315 1.66489952  83.70183953 -535.775129572018
0.82620205 1.74486499  99.87900987 -535.766277950859
0.96788532 1.79892334  75.65123320 -535.767125381898
0.95779686 1.65619349 107.72022499 -535.788605633727
0.82663183 1.85360687 102.18414661 -535.758431478597
0.93291359 1.57184132  98.14000592 -535.779731987568
1.01678070 1.69865375  70.38970396 -535.750178909130
1.00731692 1.57282634  97.09408406 -535.776324756581
1.47829162 2.03282882 102.61086869 -535.657259670309
0.96409184 1.96982945  92.00000353 -535.769385914125
0.89805265 1.72037311 107.12158116 -535.784956048244
1.18872693 1.55381853 107.53848610 -535.742713191944
1.06121231 1.81919265  95.61954555 -535.773651909361
0.88500084 1.96652528  97.27785856 -535.764302951001
0.96361283 2.15630121  71.22710515 -535.742907365596
0.97806741 2.09594552 133.59717738 -535.730238125504
0.86399488 1.65652564 134.97903764 -535.755693609449
0.93638729 1.66916110 117.91255131 -535.783423403717
0.94799494 2.06670183  83.01939613 -535.757441318071
1.00482707 2.01404339 114.06021643 -535.755590623132
0.95020715 1.58091622 110.36027153 -535.783692704446
1.21390509 1.67825535 111.98700363 -535.745042812157
1.04309505 1.73078444 126.02694766 -535.765802178814
0.98286506 1.94195867 106.80011775 -535.769245517116
0.86047251 1.84419093 110.17083943 -535.767403368123
0.97869153 1.53114941  65.77833635 -535.700097826068
0.95191916 1.87446431 126.29216637 -535.760259880078
0.87446877 1.64892717  73.66009456 -535.746220735315
0.90344639 1.67728514  93.09270926 -535.783227273836
0.88770463 1.65950499  85.60148392 -535.772481995379
0.97785585 1.91280873 111.03851283 -535.770202079725
0.97437036 1.94882768  55.73325708 -535.728337949036
1.08726379 1.72017382  80.80402412 -535.760701796348
0.86926041 2.06853757 102.40789158 -535.749003171483
1.12484609 1.88515477 106.15560836 -535.755343645502
0.92729464 1.71664456 133.03055664 -535.764211589160
0.98203245 1.62205048 117.26047984 -535.782359096266
0.76991484 1.67239557  81.20063430 -535.718617571469
0.85326279 1.57259831 109.02012081 -535.771361370964
0.95861885 2.11948503  69.40581496 -535.743905025460
0.96290568 1.77389193 101.87772410 -535.786378096657
1.13575485 1.72242615 108.44398936 -535.763603010409
1.04569022 1.95050505 109.49942014 -535.760768569274
0.90227144 1.77551544  98.81836421 -535.783587659964
0.91923755 1.74158001  73.91126872 -535.761677846962
1.14332888 1.71302465 101.14239745 -535.763395053000
0.99247317 1.58396558  76.31457267 -535.748095410314
1.32469377 1.69350207  71.42587660 -535.693768747329
1.03128255 1.68652360 115.08369391 -535.779498904410
0.95226016 1.55763123 125.11091142 -535.772346413314
0.95443092 1.48474223 105.33103918 -535.763458864039
0.89864259 1.83330129  93.86374400 -535.778405158692
0.84914757 1.82321586 104.70841960 -535.768537339037
0.91135911 1.62926494 109.39044031 -535.785937594395
1.02214900 1.85898347 106.42298929 -535.774429556975
1.12363611 1.66427357 107.70633586 -535.766979851986
1.11196392 1.73861403 107.41108116 -535.768235945676
0.94951197 1.67864477 107.62871470 -535.788850362158
0.98952317 1.60819112 111.74411226 -535.783985907569
0.74130355 1.69865817 101.89842372 -535.713201824814
1.03798650 1.74469238  90.56210222 -535.778156123938
1.12150703 1.69680134  87.64749282 -535.761301779977
0.89295031 1.68696576 103.22894679 -535.785537886452
0.70203843 1.67089232 114.58103522 -535.666737022644
0.99692893 1.53926294 114.00180099 -535.774556428744
1.17030020 1.71609560 120.46677584 -535.748230337244
1.01209057 1.64988052 103.01542151 -535.785237669752
1.18993953 1.72514374 101.14350408 -535.752676105448
0.85227145 1.52505224  97.21087574 -535.757858522998
1.02198234 1.66055495  83.74219748 -535.770804755973
1.02331453 1.63144415  89.97362249 -535.775688430489
0.98415367 1.67604926  75.11689364 -535.760397013865
1.04803689 1.73097869  79.68051875 -535.765583857795
1.06455461 1.75563860 104.36385579 -535.776830927220
1.10496374 1.72624938 116.57449790 -535.764988387053
1.29888452 1.75278064 108.94365983 -535.723465981165
0.98323611 2.06726457 105.16669813 -535.756593392980
1.01214521 1.52747885  94.53319709 -535.764200477325
0.96687631 1.96566187  98.99610831 -535.769794850862
0.86234777 1.72637110 127.29202989 -535.762121881410
0.91117551 1.73486618  87.16671946 -535.779857012886
1.27558946 1.71012156  80.54881064 -535.718906237773
1.01328076 1.91037766 110.62023033 -535.768128593300
0.82535615 1.59664069  90.40811496 -535.754968268686
1.02026238 1.93961815 101.92638682 -535.768220520571
0.91846290 1.57402053 113.19237693 -535.781229416284
1.01820531 1.70087410 102.02759778 -535.785116894889
1.03267727 1.77333237 109.07921605 -535.778882862965
1.13363742 2.11497571 104.50017145 -535.730823235840
0.89711389 1.68036593 130.22847048 -535.767250662099
0.82017319 1.75705783  89.10758203 -535.758649634773
1.11253737 1.70392772  81.45811921 -535.756342991934
0.86823302 1.71583660 111.20894790 -535.778305376798
1.09675203 1.65834615 131.32013897 -535.752640118165
1.10428378 1.72597546 125.51432950 -535.756341375610
0.95271008 1.89391467  73.17036063 -535.761371190240
0.94215779 2.00300281 103.26372468 -535.764745392315
1.02206325 1.64770207  58.76423301 -535.707584756884
0.90222095 1.58261042  84.51999475 -535.763037907785
1.04298941 2.20343289 106.65181518 -535.737085330988
0.85961182 1.87806888 105.54257878 -535.766021141910
0.96640957 1.87542555  80.72622567 -535.770901900152
1.25368080 1.55931758  98.65768752 -535.720878167171
1.08728401 1.68966660  73.24653720 -535.746497171032
0.98752767 1.47353317 124.07254754 -535.754396513323
1.30506566 1.69092711  68.62830181 -535.694154770305
0.97613946 1.61109100 129.87624413 -535.770171259485
0.89161803 1.51343367 111.01080044 -535.768857594487
1.33906226 1.70889258 104.07107882 -535.715989262952
1.15440545 1.72224561  89.28196198 -535.756232147699
0.89706851 1.86807757 110.64617050 -535.771955383841
1.25155571 1.75673842 100.20057063 -535.736822580126
0.89751630 1.96611282 111.34191368 -535.761075402686
1.05246879 1.65879872  58.65778199 -535.707967683060
1.00848018 1.74850811 144.00893519 -535.741775902374
1.11306472 1.69963401 104.87839236 -535.769703058750
1.11803950 1.78472117 104.76112237 -535.765348293903
1.03857547 1.58739542  95.12189412 -535.773303204039
1.08686100 1.81683073 103.16187917 -535.769415401823
1.05261464 1.66561630 119.27424802 -535.773551676214
0.93342338 1.63091174  96.93137629 -535.785570509509
1.09099610 1.64929554  89.96175212 -535.766883856429
1.00891594 1.71523452 103.54217596 -535.785823284332
0.87488238 1.47244135 104.50559283 -535.752719494686
1.43631987 1.73734867 106.61528165 -535.690420887033
0.86259639 2.09744777 107.48705311 -535.742176799131
1.17724232 1.87559927 104.78135470 -535.745473265145
0.86390356 1.66198053 112.04094880 -535.778116354728
1.12930338 1.64092042 120.59181427 -535.758052151060
0.97227470 1.63388871 119.01110656 -535.781981190727
0.89304978 1.76107593 125.56773494 -535.767629404956
1.14911137 1.61580473 101.46823835 -535.759246981640
1.07174045 1.78682368 104.44620758 -535.773842719661
0.88869070 1.54723576  92.02229695 -535.765247672587
0.95671278 1.64396351  93.98398314 -535.784807010474
1.09632525 1.74819490 116.03792975 -535.765925025620
0.90244962 1.82228027 109.76353388 -535.777558051377
0.98673454 1.80330545  89.44925079 -535.780607622982
0.94979147 2.08676543 117.63877527 -535.747521155791
1.01540801 1.74594579 104.05679756 -535.784022147141
1.08735288 1.62873468  98.06631387 -535.771660254773
1.44757330 1.65715900 114.12296648 -535.684146682690
0.96469684 1.95200313 115.00030834 -535.763598878504
1.03274899 1.47605803 108.81949942 -535.754612536497
1.00370296 1.53692745 105.04350477 -535.773992241007
0.96683725 1.91427479  76.44907226 -535.764335867010
0.91598515 1.89219798 111.33687401 -535.771153855548
1.19530017 1.57933375 104.42457970 -535.745045515399
1.24118955 1.71633550  84.91698674 -535.732243700550
0.88494853 2.18669554 104.97974214 -535.739384449516
1.29996263 1.76273787  97.31201562 -535.724251488711
1.01400829 1.84983248 105.84996934 -535.776362423072
0.90381971 1.66379492  70.30011181 -535.744707277479
0.95346710 1.99894487 107.53736949 -535.763518972161
0.99129636 1.61112908 119.21343557 -535.779802380843
1.31416305 1.70276884 132.29623235 -535.700123714992
0.97822089 1.95800347 105.33411852 -535.768418338500
0.98473024 1.77562583  78.98057210 -535.771365544815
1.01264190 2.09896430  95.62849262 -535.753565167571
0.92468287 1.75484131 125.35505808 -535.771528202602
0.90487272 1.68489408 130.54815243 -535.767555040817
0.97584287 1.67481741  64.24550753 -535.732739749957
0.97699101 1.51715588 113.39330241 -535.771886595553
0.92381012 1.80866480 122.80369536 -535.769889298669
0.92127101 1.68821597  99.92370343 -535.788104068935
1.04240056 1.70595575  85.80261579 -535.773273249864
1.20043165 1.71640027  98.76020154 -535.750113440926
0.94793098 2.13053999  81.64435337 -535.751120368226
1.14001777 1.65732016 120.78011734 -535.755785907637
0.85570239 1.64622548 116.41460080 -535.773548340112
0.90425166 1.48272890 101.68832323 -535.758862800394
0.92223587 1.85902498 118.90563813 -535.768943054580
1.02082759 1.67823010 138.67737532 -535.753482847968
1.05950984 1.81383850  93.05887458 -535.773577795872
1.05187378 1.67903424 104.43474953 -535.780672349549
0.92802993 1.61812207 139.50917520 -535.757822897093
0.98224887 1.97212886  78.57525242 -535.762019413361
1.03707843 1.65844208  95.94961769 -535.780439873114
1.05499535 1.78955637 112.80250527 -535.772529519994
0.92061303 1.80294779 114.44325118 -535.777976342583
1.06252927 1.70471356  78.01389568 -535.759905794945
0.92290767 1.59415453 113.82802706 -535.783146053728
0.96530041 1.57300228 145.50105247 -535.747256881068
0.86598882 1.60812688 106.37953515 -535.778088198330
0.90685066 1.57136714  88.12684019 -535.767258382481
1.10946224 1.77759508  94.50588557 -535.767159234287
0.94894612 1.83532280  99.29630943 -535.782299507204
0.99768162 1.58634613 136.46186105 -535.758849328939
0.92321145 1.65730745 103.93823377 -535.788319312823
0.89179638 1.53971135  96.91922335 -535.769267567039
1.02845397 2.05319494 109.88306880 -535.751887884710
1.12460520 1.80625646 102.52628825 -535.763060123672
0.96886953 1.71200788 115.65398260 -535.783753747783
0.83097483 1.74253103  99.07757795 -535.768136050991
1.01992500 1.63058431  62.56751089 -535.717389858678
0.94244300 2.15631249  87.53934313 -535.750313114227
1.06054288 1.72092752 120.69870432 -535.769486245169
0.99187508 1.74712405 127.73621622 -535.768273254384
1.12418948 1.48944817 107.02395551 -535.740517447554
0.97582909 1.66528031 134.49576510 -535.764155569028
0.90303073 1.74170191 123.25914193 -535.772993941314
0.93932375 1.74132935 118.27591906 -535.780366565215
1.00000706 1.71267945 135.91110458 -535.758303761733
0.89643335 1.53611864 101.93286139 -535.772563978515
0.83025762 1.75195270  88.99029593 -535.762801452926
0.97202368 1.95797873 116.20134511 -535.761781743040
1.05211486 1.64896110  78.56667199 -535.757605062055
0.87961312 1.67517933  93.14118154 -535.779617829666
1.03954848 1.66294461  94.75211485 -535.779636220337
0.94639588 1.51265559  89.54664200 -535.756992285710
1.03366820 1.59480483 104.12572429 -535.779017950975
1.14294650 1.68495160 128.47006464 -535.746441343860
0.95149172 2.15193387  93.47610071 -535.751278036389
1.49556548 1.79155566 100.43939400 -535.674503401133
1.10606892 1.82251706  97.32635594 -535.765812719222
0.71377635 1.65042367 100.04010952 -535.683499563179
1.02034483 1.58485447  92.91229575 -535.773281086780
0.94001995 1.86651069 121.94819976 -535.765933539060
1.04592451 1.66867559  60.67092416 -535.717101825953
0.97872650 1.72568764 124.69417815 -535.774145328850
0.95583575 1.99940356  93.38882186 -535.766688324930
0.99025364 1.69397772  90.30562292 -535.782707886481
0.97650415 1.80077781 100.79463412 -535.784263608947
1.04815070 1.72273064 110.40257600 -535.778794044488
0.93735958 1.50390779 136.36473712 -535.751759103646
1.02116910 2.03092323  95.52677798 -535.759661290096
0.91584155 1.72612704  77.59302488 -535.767456764591
0.84144123 1.66464174  94.43679160 -535.770375350824
0.91224051 1.70796106 110.40798644 -535.785748425464
0.95383587 1.51161066 146.92661671 -535.739036994275
0.78425126 1.67594228  66.43223159 -535.693155351282
0.97526069 1.99041089 131.22138947 -535.742034304303
1.09098529 1.60867568  99.56531749 -535.769900105684
0.88938920 1.70429185  86.07547100 -535.775567146129
0.96353368 2.04540867  56.35858386 -535.729291454211
1.05099664 1.64899527  90.36846369 -535.773871325411
0.96152610 1.60386124 122.42276834 -535.778412410946
1.07892895 1.50363849 108.38221932 -535.755557878625
1.00165965 1.67912896 142.79403531 -535.748895437698
0.96720590 2.09354176  65.08367800 -535.740761943849
1.42217794 1.70429139 129.57534283 -535.677123622265
0.98079203 1.82235377 100.54571102 -535.782494730949
0.94176494 1.56482012  69.01108836 -535.722609812120
0.87370266 1.48144761  97.51055144 -535.750202243135
0.96590461 1.48007179 115.35901551 -535.762182231283
1.28588488 1.51626745 105.18113396 -535.709943136233
0.81809815 1.69363093 115.46568554 -535.760356706498
1.00753410 1.58097936 107.87351927 -535.780750459536
0.97870996 1.71393930 137.61898864 -535.757149521548
0.98601372 1.70839138 117.01698901 -535.781974836745
0.78406103 1.67110541  82.19296362 -535.729757186125
1.01216699 1.81836475  90.56845936 -535.778356706131
1.05783386 1.66014812 114.22807443 -535.776372273091
1.12402639 1.70193065 113.64446388 -535.764093096587
0.98966752 1.75084367  98.98119659 -535.786197587322
0.95259126 1.74772642  98.15535061 -535.787581853021
0.89294208 1.79531975  92.27145588 -535.779419841607
0.98006194 2.08894633 115.44771901 -535.748519017493
0.79463639 1.83974573 101.88231341 -535.744230951767
0.98613002 1.58934627 133.79963054 -535.763592406326
0.94304841 1.57070718  76.29859490 -535.745736273090
1.07872563 1.92522083 105.17795650 -535.760403508125
1.04154368 2.01562362 104.13605063 -535.756989555723
0.91458463 1.95229620 107.48818922 -535.766827987366
0.83151155 1.64330804 111.92507707 -535.768223366923
1.09309810 1.83724419  99.44924615 -535.767203869563
1.13413661 1.66482425 115.18199277 -535.761438302536
0.97278877 1.73314306 108.64638534 -535.786602270663
0.99773382 1.88932112 108.54502535 -535.772841544312
0.97464877 1.83505460 126.44590817 -535.763514479561
0.79815638 1.67926400 140.17839345 -535.722432572869
0.96529890 1.99557235  85.69856557 -535.765066913694
1.17802364 2.04587618 104.55022367 -535.728295029272
1.38228611 1.70814962  86.53839159 -535.698273052557
0.97921197 1.51075456 102.23074069 -535.768729310090
0.98097409 1.89318055 126.99158511 -535.756802821964
1.14417349 1.65285819  84.37273188 -535.750414662085
0.95965473 1.60657207 103.46794583 -535.786183544614
1.06132036 1.66341238  93.71376403 -535.775788960698
1.00193040 1.71102550  88.28537634 -535.780383450107
0.98553507 1.96906321  96.31757932 -535.768925484817
1.05228442 1.71601469  61.87533347 -535.727199186892
0.80142083 1.97555309 105.94606834 -535.732358909346
1.16409105 1.61772897 102.00827876 -535.756168157473
1.20684844 1.70816372 122.67361958 -535.737862929387
1.33221787 1.67151833  89.30742781 -535.711681602310
0.77192523 1.71999980 108.79908656 -535.736598854353
1.30678342 1.69282431  74.60965190 -535.702455305661
1.03598632 1.73630174  79.12329278 -535.766496137134
0.93266941 1.88366469  95.06185927 -535.777547764889
0.96078498 1.84632485 106.47409523 -535.779729555216
0.98988051 1.85183416  94.75150312 -535.779338416382
0.81282123 1.70448290  92.41185812 -535.758411007058
1.07058268 1.80937256 112.40561803 -535.768781171721
1.17121596 1.74379252 100.48337034 -535.756435998417
1.46151163 2.03040406 102.57228587 -535.661552233832
1.17961577 1.77662227 109.39177354 -535.750860151776
0.94019319 1.92515345  92.02514679 -535.773528036391
1.32595681 1.64317148 107.75497804 -535.717634730357
1.01478785 1.74630803  60.47286701 -535.729428599843
0.99531147 1.58371742 103.30233230 -535.781840145467
1.06858840 1.62876337 125.26656952 -535.764878212607
1.12235995 1.61685676 104.38521348 -535.765499659343
0.98929929 1.44365934 114.60945197 -535.747121543897
1.04586826 1.69018804  90.71027661 -535.776926452051
1.22852449 1.66582257 111.97696267 -535.741449511646
0.96975051 1.70319269 119.74664721 -535.780730638169
0.92984434 1.62614682 105.26548583 -535.787469768060
1.07835543 1.71516450  97.02951500 -535.775403862352
0.96161204 1.43835179  86.43891478 -535.719463493251
0.93742758 1.98187532 106.06533991 -535.765761772396
0.94825171 2.05399344 106.07619915 -535.758262391778
0.93652944 1.72948186 105.99628740 -535.787875983235
1.00678301 1.78182483 120.36456582 -535.772842133017
0.87171306 1.95828970 106.02021697 -535.760224510009
1.03083662 1.77386609  81.62630711 -535.770629294229
0.76634272 1.55323430 107.67919565 -535.726649393776
0.96109186 1.64459842  55.43417023 -535.692367624117
0.95569706 1.75463037  82.53197614 -535.776793818272
1.07891021 1.66892582  86.51432283 -535.766781635080
0.78458399 1.70583367 106.58245960 -535.746240950010
1.17813314 1.66827256 107.75372177 -535.755034540980
0.98039762 2.20801438  89.28147180 -535.745427739854
1.32298942 1.77885188 100.28057387 -535.717978516527
0.96066292 1.95984226 106.04916839 -535.768419486091
0.91883583 2.06874087 109.11679932 -535.753727139295
0.99607065 1.75130856 118.71334548 -535.777541701824
1.02005335 1.68679927 108.54991345 -535.784115432052
0.91072634 1.83114197 116.66613029 -535.772777631956
0.98567881 1.67644744  93.94562952 -535.785175852399
1.16834778 1.78941868 105.58510006 -535.754075911899
1.01330633 1.92418074 106.31887492 -535.768988610733
1.50240686 1.52246143 104.69318312 -535.672103035059
0.87749564 1.73494376 116.93907977 -535.775519237373
0.99803459 2.14083551 113.31587764 -535.743962500998
0.98451477 1.88530128 100.08818799 -535.776925727535
1.17568183 1.77946513  98.84117550 -535.753808178504
1.01356945 1.52755663 121.35186598 -535.766826202508
1.18399279 1.92888276 104.15784106 -535.739066923431
1.05819839 1.79470458  93.90293466 -535.775128192499
1.52286394 1.50357160 105.38982772 -535.666364284842
0.78795083 1.74524616 112.08358910 -535.744159617709
0.92136221 1.52861920 111.06268980 -535.774985269251
1.16727375 1.95971377 104.76178441 -535.739498121542
1.06341432 1.85851905 107.49791625 -535.768395200475
0.96013514 1.77082750 135.26296501 -535.757362986499
1.05365418 1.83915219 112.90116564 -535.768541513697
1.06458871 1.98531231 102.19034701 -535.757515158887
1.06422159 1.65739063 127.91635847 -535.762804213501
1.00739326 1.93870089 110.07015895 -535.766064710180
0.87379805 1.67762846 115.72815049 -535.778058966704
1.09935074 1.71089806  85.98513181 -535.764351896645
0.96995554 1.54634780  87.69441954 -535.763011711539
0.98791092 1.86182548  87.03281434 -535.775700316620
1.01879335 1.80425782  91.00819497 -535.778648883717
0.99774538 2.00480955 113.19361672 -535.757754717549
0.86316605 1.64138033 114.14997574 -535.776731287664
1.07986448 2.09214392 104.50415105 -535.743134535140
0.97370533 1.75252186  96.50008780 -535.786533833473
1.41851754 1.71444609 111.64629442 -535.693550726101
0.88293234 1.64543647  65.82610005 -535.724656441725
0.92771611 1.86252898 102.65893365 -535.778831588599
1.06912960 1.52414778  99.91495985 -535.759753224820
0.71143688 1.41988459 107.14122736 -535.632982646339
0.98129384 1.68391545 129.27132906 -535.770373791549
1.09858295 1.72253483  82.91979077 -535.761408305189
1.01432573 1.66525685 110.46301202 -535.784127946332
0.96427325 1.70489945  86.71054782 -535.780815734871
1.09943037 1.63533622 115.48159275 -535.767806686344
0.90700691 1.64512551  90.30637962 -535.779560549303
1.28041338 1.79204797 104.58269333 -535.727333014584
1.17526114 1.50037933 102.40845525 -535.728797815752
1.16552569 1.69334279  84.56463045 -535.748700139287
0.83988947 1.77332813  92.43335324 -535.767826993040
1.40030290 1.59287621 100.54172666 -535.694598556700
0.94982879 2.08831713 106.92244490 -535.754285914267
0.97286451 1.53483994 104.47359888 -535.775718856609
0.96706722 2.05981507 127.61493290 -535.740369397213
1.08578129 1.82385781 104.02294087 -535.768865486921
0.99694821 1.83281311 119.40826159 -535.770232156664
0.95235887 1.47061911  67.84810538 -535.679519618716
0.97162323 1.54679304 108.73742401 -535.778595148189
0.96711431 1.55772655  78.53011387 -535.747978877952
0.79251950 1.63349215  97.22957244 -535.748728852163
0.70824178 1.81980631  96.94439767 -535.669947689004
0.80639133 1.72098910 112.63756916 -535.755453468873
1.00961321 1.63101398 102.34462895 -535.784520253336
1.00193456 1.67850702 123.47921367 -535.775697362694
0.97136033 1.80041527  69.26308553 -535.755878951802
0.85904522 1.73845654 106.97161027 -535.776689132182
1.01494970 1.70444788 124.69074770 -535.772207633957
0.91850273 1.51663016 109.83795823 -535.772328231211
0.92848846 1.48645739  87.75831582 -535.744282279926
0.84941428 1.63795811 125.23728220 -535.764162071157
0.96871548 1.87038646  90.28545561 -535.777604904745
0.96137519 1.74037363 103.68781593 -535.787934799804
1.09089115 1.57640467 113.19680756 -535.766472809339
0.87329499 1.76330387 103.72411382 -535.779405095151
0.97351178 1.75365194  97.05720702 -535.786642992033
0.92498436 1.73660755  59.94600349 -535.725610918214
1.21573971 1.70243309  80.21764188 -535.732452580924
1.00071135 1.62420773 113.73404549 -535.783067794726
0.83099895 1.80052499 102.48226761 -535.764672565225
1.09294761 1.87275031  97.80942755 -535.764372022829
0.90566862 1.74377594  95.50481041 -535.784605849541
0.95631259 1.78826874 103.57291419 -535.785344741153
1.13042999 1.78901873  96.96732443 -535.762967767358
0.78762250 1.69583250 119.57550701 -535.741287864817
0.90780650 1.55932604  92.96044515 -535.771307315966
1.25811144 1.68303576 110.59390802 -535.734836269593
1.24082614 1.71470111  96.17376934 -535.739723091906
0.71815142 1.71125225  83.67321435 -535.676480160521
0.92821967 1.60659971 119.11757232 -535.781094612283
0.91212493 1.64133030 123.02504620 -535.777712720193
0.93669812 1.63211518 115.99470115 -535.784521853966
1.14892075 1.70277809 104.67040764 -535.762178805263
0.96031649 2.23534038  83.91991911 -535.742805694810
0.97833458 1.74673087 105.11214982 -535.786778501557
0.95524143 1.99061236 147.95989926 -535.716689145227
0.83548284 1.69955241 129.77808964 -535.752608022958
1.14685705 1.66140462  94.26510406 -535.759689049817
0.95778928 1.78497660  99.11308500 -535.785834738175
0.96072311 1.75464590  64.74835094 -535.743440266036
0.97944015 1.93542965 120.16501031 -535.760227913110
0.84848669 1.85523468  98.38740248 -535.766421026485
1.00542594 1.75467484 105.05764864 -535.784409142464
1.00032594 1.69625177  65.84189340 -535.739692657354
0.96316616 1.86230247 132.04794043 -535.753658074923
0.96572131 1.85797980  81.86244197 -535.772929706558
0.93826246 1.83371626 102.62065501 -535.781857929560
0.88319435 1.86027598 101.40712339 -535.774136143185
0.82940089 1.61738326 111.61734932 -535.766713241537
0.99009365 1.73614221  79.70854391 -535.771667031720
0.90705855 1.61025804 137.96198012 -535.758613363306
1.03783990 1.78458509  97.55408774 -535.779444504041
1.06051477 2.17565695  99.11219334 -535.739579582779
1.01500736 1.74579072  74.67836370 -535.761980443376
0.94249909 1.59019555 125.88357759 -535.774509710890
0.94123123 1.59861742  75.21611655 -535.749314623399
0.93417758 1.59989999 118.63235095 -535.781270145250
0.84955120 1.70272183 108.08985663 -535.775155144749
1.00580859 1.52447274 108.21975587 -535.771628039580
0.92199075 1.66324247  83.75208264 -535.774106000056
0.96716506 2.10740382 132.86737321 -535.730579023590
0.89004718 1.58187438  97.42656945 -535.776887533856
1.22574584 1.70281900  82.89887603 -535.733376530641
0.96199896 1.61813828 145.05337832 -535.749358549269
0.88912346 1.74917603 114.80983442 -535.778279544792
1.37806312 1.67682324  73.76475454 -535.681773177762
0.97814851 1.77158694 108.01321032 -535.784463182487
1.02927617 1.56775209  85.89468110 -535.760138326941
0.89641132 1.77762250 121.86952116 -535.770921305910
0.95404597 1.97141269 112.24728056 -535.763664103889
0.96987611 2.09311067  93.98563107 -535.756933089836
1.13524594 1.69868006 140.17296761 -535.730468756518
1.05138634 1.57899287  90.11933016 -535.765170993995
1.00880339 1.80018108 110.05588530 -535.779155012947
0.83518918 1.76224657 110.38834402 -535.766473247037
1.00844124 1.67498877  75.92743588 -535.760320413171
1.04100456 1.87772021 106.40014186 -535.770347559742
0.95239675 1.65786346  99.86885016 -535.788467511373
1.19934000 1.71603449  90.92878825 -535.747141886391
1.05252918 1.67397655  86.13568580 -535.770846663295
1.26866001 1.86988882 102.39284068 -535.724843070195
0.99245901 1.62278338 117.89150471 -535.781192481954
1.07174399 1.67803923 100.93846277 -535.777347704781
0.98768056 1.83151707 139.41271003 -535.744121689610
0.95766012 2.14636552 108.70433384 -535.747633442759
0.87026260 1.66495017 115.51162851 -535.777638640720
0.93607428 1.45858134  84.43448994 -535.725382648624
0.96818195 1.58467460  92.99899908 -535.777390699991
1.40775681 1.69892087  63.67318620 -535.667189750533
1.04082364 1.71869421  71.86643635 -535.752565690568
1.03033129 1.71517184 101.65596552 -535.783443567306
1.48195975 1.67890449 115.68631330 -535.675446401498
0.93088137 1.86649450 116.12415773 -535.771217046879
1.07372450 1.85835259  96.14146692 -535.768838183652
0.97668344 2.23678228 101.79178061 -535.741606725461
1.44620967 1.87481010 105.11223308 -535.679584100891
0.96941089 1.73873321 104.15459803 -535.787709176441
1.29660000 1.69568448 121.01005471 -535.717881004948
1.02819398 1.60940469 110.61158103 -535.780445613735
0.95768004 1.89863349 101.73506786 -535.776258106279
1.29189814 1.70043766 103.57164824 -535.728036261382
1.05792426 1.86715074  99.28689146 -535.770661241010
0.92208218 1.76256529 140.22516313 -535.749334818262
0.97268103 1.76137810 110.89826208 -535.784006898033
1.47055839 1.66373178  98.18064899 -535.680824215430
1.29549929 1.68689003 104.46960278 -535.727057906512
1.07003308 1.66353236 125.87039832 -535.764180535702
1.00728721 1.63513624  92.40418597 -535.780017561365
0.93443161 1.72983110 100.96428423 -535.788257026068
0.99886213 1.88731230  93.36534285 -535.775510895574
1.10338395 1.75171081  95.15448142 -535.769503277751
1.00720252 1.69820986 125.36886327 -535.772498520247
1.17701744 1.99272908 101.16277205 -535.735063308217
0.95379314 1.69508207  94.92958801 -535.787259115158
1.29290697 1.64947470 108.75191139 -535.726184075093
0.85734516 1.66852189 113.12810578 -535.775912118718
1.05056717 1.69573160 138.35346625 -535.749210138445
0.94937754 1.90441834  74.61984661 -535.762766604740
1.07535385 1.57315536  91.43798552 -535.761796429391
0.92788090 1.94657525 103.96881979 -535.769960409527
1.04057742 1.68782140 110.85584227 -535.780590811270
1.17986030 2.11720312 101.86720665 -535.721570246752
1.23136496 1.66660818 112.01022299 -535.740746092014
1.31245342 1.69322764 101.38484528 -535.722837481308
1.07416699 1.77482328 107.77599762 -535.773140256054
1.22113645 1.70885569 114.26377991 -535.741522180167
1.32866543 1.60146413 106.63032576 -535.712830919203
1.15528425 1.71011579 104.41048749 -535.760700962066
1.14926831 1.77916458  98.82882819 -535.759698290615
1.16307607 1.61481931 107.05034040 -535.756400254556
1.22899489 1.70440646  91.44226586 -535.740265882913
1.32431747 1.66482779  89.28431293 -535.713246713646
0.85020318 1.93656717 107.88362334 -535.756047013015
0.89960556 1.64939438 118.20075358 -535.780660639606
0.80204270 1.96732792 102.06689804 -535.735046153022
0.92009954 1.59463316  76.20690387 -535.749714417165
0.81784463 1.66513266  83.66472904 -535.749665185395
1.03326137 1.76200718 110.84354233 -535.778641606564
1.00310420 1.72208692  83.12536273 -535.774958307897
0.97950339 1.87081763  97.16729050 -535.778642481349
1.10935542 1.69509153  91.65086330 -535.766912314231
1.04921033 1.74786031  79.27666448 -535.765228110213
1.12648979 1.75667036  99.19608369 -535.765582414937
0.84111414 1.73872724  91.99671603 -535.769129868445
0.98137383 1.57780948  83.51516348 -535.762429800529
1.08156374 1.48951610 101.30934839 -535.747762454762
1.02558234 1.58928503 102.49927085 -535.779128055922
1.03442110 1.63063255  95.74770892 -535.778990186919
0.76231489 1.73506614 100.89973110 -535.729953630943
0.72822720 1.60761678  94.85029889 -535.693883318584
0.86526392 2.02563164 105.69313918 -535.751421399442
0.77904079 1.72177170  93.44584782 -535.739995425283
0.86869866 1.78764146  98.39221396 -535.777033944015
0.97961041 1.92104881  59.61556010 -535.736777872344
0.95469724 1.78297144  65.23626447 -535.746412258613
1.06071444 1.60865341  95.38360670 -535.772860887360
1.48469738 1.66203762  90.71133858 -535.673566458267
1.44678794 1.54639419 101.74167232 -535.682853379953
0.93309503 1.84982342 132.16961306 -535.754371699085
1.06971681 1.72848734  86.30701625 -535.770112922472
0.76309493 1.71160022 130.77800375 -535.711187632610
0.96296612 1.97203453  85.23879667 -535.767005955268
0.90105592 1.64480335  91.37046893 -535.779907081544
0.99407609 1.85104638 103.32809849 -535.778806820395
1.01690568 1.47937258  98.82366783 -535.752742270534
1.27750170 1.71189200  91.33594356 -535.728347941082
0.85764900 1.67613485  94.72441921 -535.775737463435
0.93942294 1.80434808  61.73844686 -535.738132895968
1.03608501 1.68828668 113.60810760 -535.779762867504
1.13887876 1.68350225 102.21176779 -535.764517844338
1.18691934 1.65825790 120.86037594 -535.745145655668
0.87406502 1.78575576 118.24182426 -535.769967207616
0.96046147 1.71362021  81.47343051 -535.774663617417
0.96293143 1.74049482 129.12974374 -535.768387322506
1.36939133 1.61611438 108.39912320 -535.702680472516
1.16632795 1.49748757 103.61824949 -535.730695572460
1.17271595 1.73667500  99.77751632 -535.756274893531
1.14949833 1.64169610 114.53697216 -535.758153897717
1.39191991 1.69383383  94.04276751 -535.700500837411
0.95890651 1.66117621  73.93796850 -535.756793463758
1.25925642 1.82126121 104.09952936 -535.730686145253
1.26649527 1.65286566  97.20790277 -535.732302037984
0.97488588 1.70136825 111.01841111 -535.786640076858
0.97417669 1.61849650  89.66683833 -535.778058107326
1.47499857 1.66458544 102.02094754 -535.681321134721
0.88473017 1.55955864 100.03281995 -535.774259486635
1.04883783 1.68292232  96.44638631 -535.779790504918
1.19078750 2.26701275 101.82586800 -535.705482028170
1.03211548 1.52044991 108.14021535 -535.767542250283
0.89280309 1.71598054 115.64656725 -535.780108597481
1.03599497 1.70405277  86.81335655 -535.775125855974
0.94935497 1.52428066  97.37733703 -535.769826169454
0.90632165 1.54863023 112.62574818 -535.777063876634
0.95174814 1.71737337  72.58703875 -535.759168857372
0.95262420 1.89311799  57.36750299 -535.731012723069
0.94544165 1.70955348 124.75507880 -535.775738586475
0.89949646 1.90270648  96.31192439 -535.773001075630
1.05179861 1.62210893 110.37351253 -535.777958645925
0.94259540 1.42624564 103.79746822 -535.737918411592
1.04590466 1.71026094  83.42930092 -535.770194677221
1.47505516 1.61241872 103.02951210 -535.682605340345
0.97804563 1.65680310 113.84003353 -535.785497816096
0.80346154 1.63874277 112.30386195 -535.755680354101
0.85001924 1.68946921  91.88921550 -535.771934097624
0.74735251 1.84618564 102.59829707 -535.709141080180
1.06674277 1.62643105  99.78082577 -535.775761407407
1.34926910 1.69862283  75.18128387 -535.693304238146
0.97006625 1.75174824 100.69906378 -535.787337651545
0.85399048 1.66004802  76.67970630 -535.749488895666
1.01400465 1.59475702  83.78326085 -535.763542579442
1.25303213 1.78956082 100.02620812 -535.734862457630
0.94486813 1.89228817  71.64967011 -535.759128594410
1.21475695 1.48351587 101.97927278 -535.715272695213
0.98845312 1.42620875 124.21629315 -535.735529544793
1.39842065 1.85449116 103.17603916 -535.693596146499
1.00507197 1.70363069  76.38613663 -535.763775523928
1.32267231 1.58730280 101.56346206 -535.710106602693
0.92930408 1.75020489 100.36165932 -535.787232108066
0.94428913 1.61351815 131.17880024 -535.769515910220
1.27936022 1.68062214 129.32949020 -535.713238406144
0.97214643 1.66643002  99.43810123 -535.788111366080
0.73789357 1.51133387 105.14692231 -535.693857768153
0.90278646 1.94996381  94.08967083 -535.768660512246
1.14162471 1.83236777 102.23038852 -535.757639292485
1.02280385 1.63517618 111.79418665 -535.782017342960
1.05385108 1.71665958 124.17881079 -535.767102800155
1.08541396 1.52075674 104.88470552 -535.758217597933
0.85244605 1.71317156  87.02231770 -535.768600931375
0.99693287 1.73491572 143.56648779 -535.744646483226
0.68299540 1.70465820 123.38345528 -535.631092045745
0.97282490 1.52555686  83.13597407 -535.748837103570
1.00684180 1.75607801  70.40590269 -535.755017769917
0.90274906 1.72460463 121.43335801 -535.775948156659
0.98919343 1.67932899  87.52176639 -535.779617744511
0.99634301 1.90892544  99.68193169 -535.773936366710
0.84349071 1.59454056  94.43137151 -535.765471590742
0.92403158 1.89718061 111.81065731 -535.770933519378
1.14098859 1.68250239  81.34075967 -535.749340373850
0.88791302 1.72634313  81.23880593 -535.769651748597
1.03001553 1.64543998 119.61069684 -535.776415495663
0.96791517 1.47202446 110.49745805 -535.759920756544
0.84199590 1.67615547 105.57495003 -535.773742397270
1.04598095 1.73762262 107.89228611 -535.779537088809
1.50411566 1.70045506 103.17938255 -535.673951143714
1.00694132 1.56239511  80.01679054 -535.750328456332
0.83207798 1.64976778 128.49272169 -535.754773197900
0.92513322 1.86919069  95.41543421 -535.778447714512
1.17910273 1.65326649  96.56202718 -535.753263397677
0.80024134 1.70089455 123.60757139 -535.744323289257
0.95009571 1.81626022  87.91804375 -535.780063970150
1.30560465 1.94672802 102.18890757 -535.708562111458
1.43954214 1.58676246  99.52689574 -535.686489206910
1.11913482 1.71959393 116.14950235 -535.762791252752
0.91029022 1.80647952 109.56413182 -535.779894785748
1.28555464 1.73791542 103.75370392 -535.728864258421
1.11677856 1.64122080 112.54441222 -535.766148707521
0.98304723 1.64468717 130.30762338 -535.769692690145
1.10136951 1.87242824 106.72654529 -535.760879727184
0.92971430 1.79036557  85.26781801 -535.778482195993
0.85934084 1.72236414  99.78071196 -535.777956175651
0.89090745 2.25934390  99.96793624 -535.735441117555
0.74095758 1.55927591 107.60421952 -535.706406009831
0.93991693 1.72214272 135.91862142 -535.760030079801
1.01049496 1.53706612 117.85747108 -535.771081282902
0.91781495 1.56922697 112.41590670 -535.780888888832
0.98179619 1.70625554 109.03119290 -535.786977523586
1.07264158 1.67907148  83.49027635 -535.764781296596
0.96571393 2.11798863  87.59872298 -535.754041796929
1.18978957 1.70519179 115.59062237 -535.748172604610
1.03644620 1.69944703  96.69659964 -535.781807580086
0.94094269 1.85243323  73.81914073 -535.763408822349
1.01707740 1.67753407  73.78467816 -535.755469515796
1.20846723 1.69791571  86.49567130 -535.741065711681
0.99980657 1.68331976 108.30365288 -535.786290104587
1.04916679 1.77017513  95.65711813 -535.778178729293
1.21887891 1.74531309 111.95164323 -535.742055459591
1.05401819 1.73268243 133.12035373 -535.754651630776
0.93554521 1.86759668  84.21085999 -535.774114164648
1.07966279 1.68901150  72.12123503 -535.745388356607
0.90174361 1.57238930  84.61338301 -535.761129228763
1.15346609 1.71759946 122.40473370 -535.749997151499
0.92172728 1.81073966 117.79171479 -535.774604044220
0.89341065 1.67313149 109.65942892 -535.784584914862
1.04244527 1.69000934  70.25713645 -535.746450805391
1.11373218 1.76784938  96.04724428 -535.767172534594
0.91497233 1.86941355 108.15417741 -535.775232386290
1.09235516 1.85431007  96.63437225 -535.765958143991
1.08797414 1.71967238 108.68066418 -535.773059206252
0.78269045 1.74335204  86.70878814 -535.736793951394
0.83008278 1.81859889 108.41657244 -535.760965887991
0.84799138 1.73987058  89.71899457 -535.769723097721
1.01796053 1.55662217  95.44297688 -535.771020502935
0.93880343 1.89803335  90.83762268 -535.775564964682
0.92975443 2.01587825 110.41552911 -535.759371626686
0.81740877 1.64506863 127.09802253 -535.750574409208
0.95172712 1.75247089 116.23713540 -535.781485842857
1.00510164 1.94060706  98.45069884 -535.770236594323
0.98509920 1.84857357 108.28690931 -535.777777831576
1.00611990 1.77734133 142.07150536 -535.743013437007
0.98329448 2.18545084 107.31743605 -535.743939560210
1.20866526 1.71527987  90.74308488 -535.744814257592
0.97988640 2.12189535  96.56849013 -535.753468781959
0.87144509 1.68505376 114.17028072 -535.778405328621
0.92942712 1.78301424  74.71056094 -535.764927256795
0.97872401 1.59843686 101.52332304 -535.784178268990
1.05889469 1.65696582  98.02612809 -535.778120248562
1.05395356 2.13867795  98.66521321 -535.744197609845
0.88898711 1.80940258  93.40221185 -535.778449405018
0.94986602 1.71184162  75.40716523 -535.764473354030
1.14282326 1.77224608 111.69923527 -535.758069979387
0.94987721 1.70276934  88.48672562 -535.782686620817
0.74870834 1.61459131  99.46492545 -535.717147254156
1.07550274 1.56802859  96.30612995 -535.765394592808
1.36127624 1.67821862 126.14361674 -535.696649723189
0.71426750 1.74145429 101.62507970 -535.683002172801
0.91953196 1.64469065 146.73128070 -535.745961269579
1.42675599 1.67696453  96.05244764 -535.691525310493
1.00249710 1.66651350 143.90160210 -535.747499978151
0.86582614 1.59863531  87.19271270 -535.763667351741
1.03058749 1.79980749 102.58882842 -535.779379682590
0.85329592 1.63504142 121.88057676 -535.768518339669
0.91799117 1.69525437  77.76953080 -535.766283463319
0.97039253 1.64411961  60.05768956 -535.712245734508
0.81780202 1.69023534 109.06222915 -535.763570524104
0.86073177 1.60256411 120.73244135 -535.770448412748
1.39630850 1.53522554 105.76871727 -535.691978143215
1.52667506 1.67971744 100.25723568 -535.671131568423
1.00782803 1.63704354 122.99321873 -535.775817881193
1.25060398 1.69949144 132.04413480 -535.716216649033
1.17681274 1.43914092 102.05736457 -535.707454257951
0.86702634 1.78178851  87.99729189 -535.772452982842
0.98895947 1.56962182 102.53228336 -535.780235018058
0.85725376 1.96288954 103.35715876 -535.757147343304
1.09487148 2.17747293 102.58375060 -535.732861315540
1.26459648 1.71190445  83.10350177 -535.724560658176
0.93862632 1.74380639 143.85456108 -535.745482908073
0.94418288 1.80410768  85.05300264 -535.778322969870
0.94477694 2.16380084  90.75023338 -535.750009367760
1.13285652 1.57505263  97.92515361 -535.756405353382
0.94404732 1.83269951  99.82157648 -535.782429064076
1.19385137 1.69238076 105.76006323 -535.751876889728
0.93892506 1.59879193 112.61862390 -535.784584560699
0.89613560 1.55807858 103.25175488 -535.777138664240
1.24623001 1.69641829 103.68689115 -535.739452762758
1.03129421 1.60466383 117.39719445 -535.776437822192
0.89105332 1.63371546  65.57744723 -535.722940950426
0.95336425 1.88611114  88.40368586 -535.775784441049
0.80840734 1.72492663  96.70684541 -535.758318231520
0.84376484 1.69399025  78.54510858 -535.753065229808
0.92668504 1.89023970 121.55279184 -535.763321327961
0.90336878 1.70459046  71.82543087 -535.753138076416
0.95603254 1.49432644  86.02395559 -535.744427813567
1.04705099 1.63782660 134.95655283 -535.756239444113
0.80439179 1.63841089  86.77599067 -535.745523094250
0.97499586 1.88190867  75.94048773 -535.765155417067
1.27549064 1.66617007 120.38473206 -535.724034393023
1.15149667 1.48570557  98.06901451 -535.726564957428
1.41829315 1.65291321 102.04542213 -535.693606165888
1.07889324 1.73009076 100.75539050 -535.775685113749
0.82357846 1.76036614 108.89840154 -535.762806478855
0.99038572 1.76399559 115.50253574 -535.779811388675
0.95369704 1.96720313 115.32976838 -535.761800081024
0.89556088 1.74432250  80.00259714 -535.769418227784
0.99727216 1.49377276  94.83527282 -535.755892436879
1.12541541 1.70387862 116.15951927 -535.762047795490
1.12116499 1.71968154  95.53362679 -535.766762746285
1.05628316 1.67328466  68.57202927 -535.738906341853
0.75335974 1.56970928 102.36476794 -535.717600997979
0.89626728 1.51847318  93.81457881 -535.761388413882
0.93621422 1.55107734 136.91581025 -535.758106070259
0.79281664 1.67808427  78.95455653 -535.729903644150
1.07286679 1.72071255  95.26395124 -535.775667457040
0.98421107 1.90369912 138.54391380 -535.738946563164
0.99135407 1.83625940 113.76898060 -535.775150097272
0.86121984 1.57626066 105.42937636 -535.773781121781
0.94149075 1.48982749 122.67282239 -535.761944389419
1.05718487 1.99568328 106.86368544 -535.755749206875
0.95626472 1.56776997  91.18274804 -535.772815318438
0.97538408 1.86112877  72.63984773 -535.761399194125
1.05896526 1.73239053  74.76211325 -535.756408134379
0.79791829 1.78943270  94.29519358 -535.749245454733
0.84659253 1.60060556  88.15086806 -535.760102587276
0.78601008 1.71803035  87.88719558 -535.740131951743
0.93270470 1.59076391  74.34775011 -535.744991152545
0.95488124 1.74228931  56.83776476 -535.717683361952
0.93697579 1.75450392  70.61143767 -535.756695875884
1.01075870 1.69098891 132.83237789 -535.762842120238
1.47641220 1.70858137 104.70347167 -535.681182985039
1.14397964 1.76998563 110.51331891 -535.758625114544
0.82655651 1.69844802 112.38459552 -535.765568050745
0.81648097 1.67308100  89.85217629 -535.757240128519
0.98441781 1.87026375  99.34059534 -535.778384973034
0.76594600 1.68587560  65.82245671 -535.680027701896
1.08287791 1.78730433  97.25110236 -535.772252240324
1.13860461 1.65429867 122.89476269 -535.754056174481
1.00124097 1.73349742 104.46598119 -535.785861141957
1.06393390 1.66589467 111.09978249 -535.777020736689
1.01634255 1.63223847  90.10490762 -535.776680218663
1.20630451 1.80094627 107.57232065 -535.743822683315
0.79653693 1.83682111 108.87673614 -535.743228415473
1.01922712 1.64920794 112.91518687 -535.782296717766
1.22357558 1.65512387 115.91390040 -535.740269778801
0.90105958 1.73959258 128.83679022 -535.766228527899
0.97272711 1.75107352 100.79554950 -535.787265930056
0.78157510 1.67416807 122.21058444 -535.735927165793
1.09657483 1.68759037  84.36627734 -535.762214645968
1.05127149 1.73631771 116.37537654 -535.773937858887
1.02534639 1.66092314 102.46360465 -535.784016786319
1.00130097 1.58802066 115.85965419 -535.779569865164
1.00469510 1.91269810 110.66474139 -535.768660697609
1.06022312 1.74667625 108.95880006 -535.776539375304
1.31788163 1.68269012 108.08218600 -535.720676690307
1.12070132 1.72336912  76.93008935 -535.749187031977
0.83302600 1.90365979  99.03026098 -535.756481112470
0.94898384 1.70668123 117.02686725 -535.783298628049
1.12815018 1.69168014 126.41562240 -535.751900651799
0.90670375 1.70599030 115.07951041 -535.782649207979
1.16692455 1.72411183 107.72382169 -535.756973557271
0.90210203 1.79623917 106.24084296 -535.781251027205
1.20542529 1.62782871 111.84772290 -535.745998705256
0.97628290 1.57963670 142.45845689 -535.751549488712
1.05411246 1.69127412 120.17905031 -535.772094590399
1.03122745 1.72322800 121.36385866 -535.772940051691
1.18574546 1.72024775 119.57959702 -535.745352310258
1.00466133 1.78322377  94.93669381 -535.782670993444
0.93484687 1.61208469 123.38208002 -535.777964852184
1.20864523 1.69896007 124.91628430 -535.735320947276
0.92532420 1.88938632 107.12172455 -535.774499886253
0.92559535 1.76111680  59.04452160 -535.725608568534
0.95561466 1.82679852 137.26784240 -535.749216843896
1.25785866 1.67857834 111.26270010 -535.734609627519
1.02680187 1.96531189 107.39082322 -535.762724601327
0.92004585 1.85128714  91.52515280 -535.778535353698
1.04965429 1.55306806 101.40737496 -535.770026207921
1.35267839 1.75220449 103.68215922 -535.711453210683
1.01058988 1.89550940 116.54897898 -535.765516126503
1.02288077 1.68736658  84.41220286 -535.773350135962
0.97039136 1.81259810 131.84327603 -535.758513004045
1.05554612 1.65011725 114.22879097 -535.776619968668
1.34596263 1.73831778 103.67504141 -535.713649044488
1.19029780 1.79854124 105.41147842 -535.748504918052
0.98708384 1.70294950 113.35199573 -535.784633108414
1.21486437 1.60043726 104.14516707 -535.742825609312
1.30822428 1.72392352 107.59066311 -535.722733195129
0.70231980 1.60395840  99.27757270 -535.666209895038
0.86823988 1.70037431 102.37483037 -535.780841219591
0.98731151 1.63476594 100.98122143 -535.786376278601
0.86991408 1.87159018 103.24983216 -535.769949393203
1.20931155 1.85151259 103.12531778 -535.740623271571
1.13062763 1.59265858  96.64721450 -535.758646133528
0.98330168 1.60327881  94.14701758 -535.780216517479
1.13247629 1.70183941  86.59209253 -535.758210246184
0.92427191 1.81316043 119.21303687 -535.773226161760
1.04279258 1.57721746  92.91028853 -535.769173462775
1.11131174 1.46416526 105.21552681 -535.732545804377
0.98563708 1.72749996 101.79689368 -535.787472339904
1.07877269 1.68176562 125.21985208 -535.763092719206
0.95975026 1.70543920 125.78980714 -535.774654637171
1.21013976 1.62226222 104.03173414 -535.745929992714
0.99270818 1.70142398  88.49597713 -535.781122518617
1.18285217 1.71743145 116.02645462 -535.749070281229
1.09848889 1.71481620  79.71954455 -535.757040405141
1.00166462 1.82141275  90.27161311 -535.779000245607
0.90219156 1.73328988 136.63741577 -535.755685596899
0.87895865 1.71328747 109.82538413 -535.781257204840
0.98411672 1.77600186 103.41356831 -535.785174544307
1.06166195 1.76863915 102.73747013 -535.776878204678
0.98666396 1.86527611  74.78394259 -535.763821951497
1.20254884 1.68799604  95.99271329 -535.748721600746
0.98309074 1.92954567 130.87401237 -535.747973440368
0.91680623 1.62511805 118.74330447 -535.781485275801
1.22202293 1.51434525 104.33262946 -535.722612352501
0.93690612 2.08221838 116.45280540 -535.748553814750
1.03849804 1.67674511 138.80002709 -535.751040745215
0.94809525 1.68461029  99.53548196 -535.788913982420
1.27759210 1.77615954 104.17006314 -535.729069589811
0.86352477 1.60602658  92.87215487 -535.771021531093
1.08684953 1.80218919 103.41291617 -535.770425746401
0.98306362 1.70953101 102.41214758 -535.788073388797
1.02471188 1.74623859 122.78204318 -535.770955234314
1.41050019 1.68172529  95.23016970 -535.695762289892
0.88862813 1.70216498  98.20276898 -535.784029867132
0.98431548 1.68341132  90.52674903 -535.782972394654
0.87544931 1.60584939 119.93924562 -535.774457114617
1.19309675 1.65529748  96.57407369 -535.750107789466
0.99724180 1.95763321 101.05542434 -535.768696637879
1.01162960 1.57446997  79.49036857 -535.751642650562
1.06923876 1.68725288  74.42540102 -535.751342969886
1.00801398 1.60021573  82.94883844 -535.763630295839
1.22287661 1.90980784 101.95725390 -535.732454872139
0.87633609 1.43427920  93.27739954 -535.724344497992
1.23911671 1.75365904 104.72913831 -535.739584414801
1.04450625 1.62512523  84.11028075 -535.764909567319
0.98335247 1.95718153 121.87403145 -535.756026194323
0.95321958 1.63482124 107.40279050 -535.788101541615
0.88036275 1.79286063 116.51139572 -535.772109717816
0.86412881 1.47180869 104.35671803 -535.750147033663
0.87187749 1.80941718  95.34634712 -535.775790858448
1.10127742 1.76194886  95.39389758 -535.769636715856
0.91069913 1.66421769 145.18732233 -535.747084338605
1.01488484 1.68373943 100.93496222 -535.785413714926
0.97431521 1.78509052  90.61609274 -535.782746076175
0.71450524 1.59874824 101.41350950 -535.681785626746
0.97898230 1.87966922 134.30583084 -535.748116685651
0.87310444 1.67844328 110.45422853 -535.780734087017
0.97045118 1.54617456  98.34452413 -535.775076843565
0.72840405 1.99906932 105.24149675 -535.672946068939
0.79273148 1.71941467 107.52548738 -535.750389660547
0.83319850 1.66653685 142.12675238 -535.735662256116
1.08034315 1.70654110 112.58384150 -535.772986621470
0.90199343 1.53929200  99.33548926 -535.772364512805
0.93599201 1.44920589  95.06416188 -535.740399158684
0.95560219 1.80810159  94.67328655 -535.783693736273
0.83383896 1.76028808 101.68514228 -535.768504053555
0.95565860 1.80909432 136.11463788 -535.752714361268
0.99334366 1.83202188 122.52758008 -535.767340706541
1.27048169 1.65036766  97.03681129 -535.731082109054
1.03947726 1.72850406 108.28269166 -535.780691130735
0.97251102 1.75173830 113.33624291 -535.783161333453
1.03045745 1.82333960  91.46782346 -535.776437761566
0.78194447 1.70449357 138.81063463 -535.713378327611
1.34094178 1.70723393  92.91501419 -535.713206505248
0.97894786 1.75258391 146.17886540 -535.739934065372
1.12171647 1.55257254 102.00300770 -535.756887389287
1.28809703 1.68987946  62.07625081 -535.688439618893
1.20728070 1.75493250 103.69192102 -535.747401924456
1.00572056 1.72583873 130.09393186 -535.765371062533
0.92489939 1.85523919 105.47139219 -535.778511799786
0.96284343 2.11219900  62.29485271 -535.736379954314
1.07011091 1.62883250 118.49574431 -535.770860945187
0.94918708 1.94256844 114.35451749 -535.765192603539
1.06869397 1.74514461 100.08425369 -535.776895900330
1.05443662 1.70341903  80.36593439 -535.764614484914
1.01613841 1.93635987 103.73442546 -535.768451727395
1.37175561 1.68694121 123.29373379 -535.696974733793
1.05864923 1.93935502 109.12015946 -535.760287622577
1.04829567 1.60245241 122.62186688 -535.769728931752
1.39344873 1.68379037  86.81191968 -535.694374070679
0.99607852 1.86954222  89.08585079 -535.775700680398
1.01138829 1.64227824 100.35591451 -535.784509230190
1.20949321 1.69047926  94.50816599 -535.746448728162
1.22148467 1.84843422  99.25613329 -535.738535901959
0.91236831 1.62423183  87.07769521 -535.774310538927
0.97907984 1.57037373  70.49527467 -535.729477411311
1.01581079 1.92955766 107.08567064 -535.767827100930
1.05733919 1.61057446 118.81546375 -535.771947901977
0.80847685 1.59459196  91.11568750 -535.748053614862
1.04034189 1.47855452  97.38125663 -535.747749974938
0.94068676 1.96832048 105.48292383 -535.767593511816
0.84799788 1.74694361  94.33034860 -535.772371166981
0.94317437 1.97034465 103.94112446 -535.768050135959
0.91284121 1.67010568  82.84070628 -535.772523336049
1.30866594 1.66148644 108.40565829 -535.722626819764
0.97022449 1.58597280  91.27851883 -535.775692193493
0.91191001 1.67945069 145.79819137 -535.745415146141
0.94760990 1.81723487  67.52050780 -535.752599845351
0.96860675 1.63814834 135.47860277 -535.763521244034
0.94323541 1.75644468  98.93897660 -535.787280536774
0.98434922 1.67850522  78.13593003 -535.766430397914
0.97543044 1.70528144 103.81278984 -535.788515688696
0.84253856 1.65817271 118.52151582 -535.768153499050
0.97518974 1.84980267 135.94215869 -535.748653923744
0.98581864 1.78074301  97.18833574 -535.784780333272
1.05607222 1.70195724 121.22204494 -535.770467342551
1.03290383 1.58094197  85.87074780 -535.762267290916
0.82701448 2.20432737 105.35264918 -535.720730126024
0.97501317 1.58504900 104.88564430 -535.783662096489
1.05274076 1.66128192 137.89925173 -535.750767787581
0.99078225 1.96595655 122.46008140 -535.754079485011
0.92940849 1.81972007  80.49909392 -535.772618131303
0.77786645 1.83134735 106.57366667 -535.733266497353
1.03673905 1.62962666 129.40468801 -535.765067440478
0.94077006 1.75505749 110.06991472 -535.785186858161
0.91794674 1.69277341  55.78215038 -535.701779721461
0.77871312 1.72839790 117.94865468 -535.735255077610
0.97831547 1.69318233 121.41364114 -535.779122180503
0.98446751 1.66639902 132.40005676 -535.766534217215
0.96305028 1.63401327 128.37403337 -535.773031381352
0.95757067 2.10558332  91.14864463 -535.755810568630
0.93534751 1.69079245 102.17267705 -535.789089379651
1.13560357 1.68382401  66.67459681 -535.724074900510
1.29682580 1.79716528 105.09088883 -535.722777458207
0.98663966 1.84147889  88.28839524 -535.777823203856
0.90307566 2.11261621 106.10850628 -535.749014289182
1.01183590 1.59689927 130.58352999 -535.765663567852
0.90196314 1.63084117 102.81472727 -535.785364791398
1.07064485 1.55922701  95.97279245 -535.764375362275
1.03610845 1.68458403  77.95540214 -535.762031619081
0.92158783 1.56557974  74.51563815 -535.738439736529
1.46445606 1.69894917  81.09208657 -535.669905191036
0.96849328 1.93125668 121.28639620 -535.759922137118
0.96876605 1.47525795 120.46430846 -535.758487220634
0.97291699 1.70252359  54.57431457 -535.702778486634
1.13366511 1.78775470  95.97653772 -535.762178822751
1.00478550 1.58476658  96.87880134 -535.778201777308
0.95952855 1.46842117 101.29372256 -535.755168794817
1.17156919 1.59365698 104.03701888 -535.752456143885
0.99149746 1.69944561  95.23964359 -535.785899289252
0.77106682 1.74802815 111.96081891 -535.732889339575
1.18598751 1.54450350 105.99474577 -535.741351068252
1.12982827 1.80061777  96.96597502 -535.762438205487
0.89283463 1.93676221 106.00326976 -535.766550741254
0.88339256 1.72322689 134.61584130 -535.756776545940
0.77322207 1.66381629 123.40988836 -535.729468341556
0.80052092 1.72758758  77.23475344 -535.733949567041
0.84038334 1.68555982  71.52452196 -535.735988785543
1.11190450 1.58357621 100.94661736 -535.763484806900
0.99487364 1.64625581  69.56045464 -535.742861884286
0.94038455 1.93281265 120.55978409 -535.760482024453
1.43932486 1.67162800 114.55554393 -535.686749900180
1.08854042 1.82017696  96.66078901 -535.769157763656
0.85594739 1.73780630 103.36542879 -535.776597124866
0.86817477 1.78156383 118.95965132 -535.768375105463
1.29085200 1.69623090 110.78145001 -535.726460010200
1.10605972 1.75954218 101.80081412 -535.769572674674
0.89586488 1.68885396  89.38813133 -535.779554650540
0.94389381 1.67168745 103.55385572 -535.789273904854
1.04168721 1.72114552 106.23751084 -535.781274949153
0.96847463 1.64761542 134.28361453 -535.765141841484
1.40399047 1.79371317 105.10273366 -535.696161583725
1.19734243 1.72327780  96.05129828 -535.750079538946
0.95334204 1.57112946 126.40148766 -535.772462515805
1.02054139 1.52233825 114.08559120 -535.768745522109
0.95258686 2.20734254  92.45997068 -535.746095141232
1.01389841 1.78965518  85.09118788 -535.775706375677
1.39566928 1.78652004 100.55314406 -535.699321009670
1.23496143 1.54418513 100.71220026 -535.723957333912
1.04419766 1.69694704  93.86190124 -535.779413527429
0.97052562 1.90547669 100.98679862 -535.775472102549
1.24713320 1.64488036  92.75889481 -535.734121517308
0.96249047 2.23422139 107.43114363 -535.740198259170
1.22945769 1.60618505 101.96043702 -535.739443482723
0.81986594 1.80278478 111.91384454 -535.756275402969
0.92495854 1.68320261  65.16684443 -535.735004186335
0.93307661 1.77153855 113.12179191 -535.782092866122
0.96052609 1.81258159  72.53425603 -535.762163272341
0.98557439 1.67015287 125.70680406 -535.774770311452
1.08327736 1.89695225  97.77603639 -535.763950280915
0.97871692 1.84290486 114.39438612 -535.774809906070
0.99156434 2.11648374 109.57898018 -535.748949090174
1.12544877 1.82753628  98.26917199 -535.761675265713
1.14748151 1.69824192  65.28824075 -535.720677954541
0.91434777 1.57723896  95.05347530 -535.777128898244
0.77534065 1.71199535  70.35294246 -535.702728954759
1.00367941 1.63995078 116.46650615 -535.781689980198
0.98013757 1.74549992  79.24313203 -535.771729761878
1.13781655 1.82204812 107.25493794 -535.757762170344
1.01960360 1.53907518  84.77713334 -535.752443210776
0.97324766 2.12387932  92.98497452 -535.753771385777
0.89409203 1.72809412  94.01991969 -535.782866430131
1.21776278 1.68243258  85.70381693 -535.737395330032
0.93022659 1.60265526 123.90201089 -535.776907134200
1.00375489 1.66793038  65.23109128 -535.733787237441
1.23404957 1.66971227  84.96934483 -535.731918132208
1.41977991 1.67015840 118.28790218 -535.689280113039
0.79915684 1.72447450 102.57610345 -535.754539933332
1.14979298 1.63673012 115.00021865 -535.757666773567
0.96396346 1.78235415  89.47995927 -535.782497487135
0.93274850 1.79190807  95.32895077 -535.784443569733
0.73062297 1.68965095  97.05175133 -535.701555527360
1.09622617 1.67161247  68.85385931 -535.733843587080
0.99450103 1.89374871  96.19896314 -535.775643426366
1.19443721 1.76127599 107.93222336 -535.748956567815
1.36590275 1.68642815  63.58400481 -535.674497420365
1.06169368 1.52966182 113.13364464 -535.764471525710
1.02884308 1.82221736  99.63289928 -535.778265322398
0.95519126 1.93464006  78.37734743 -535.765152641532
1.19578899 1.68153495 108.21093779 -535.750864234402
0.95501915 1.72259061  70.57155002 -535.755161668120
0.97588361 1.68088314 144.90151404 -535.747290395425
0.94003310 1.66531112  56.22186236 -535.699805581472
1.27844880 1.70120896 135.98683292 -535.703605998650
1.04836230 1.84057791  97.59854729 -535.774272485975
0.96891078 1.80994539  94.36773884 -535.783234980543
1.14184952 1.68518836  88.87784761 -535.757806917878
1.27869078 1.46891889 102.78908333 -535.698535897295
0.98262701 1.47756524  86.28147238 -535.737243543363
1.28690700 1.85912549 102.06736653 -535.721301368462
0.90817209 1.64716272  55.99435982 -535.690283276323
1.49164789 1.86071077 103.40661912 -535.670267306240
1.14902386 1.58749219 103.34624283 -535.756753439193
0.98440035 1.72040012  68.93763319 -535.750779044167
0.96566596 1.41661072  94.03275088 -535.720756279490
0.86548976 1.65719983 139.67124016 -535.749166672493
0.95220466 1.77876348  95.56424625 -535.785608104434
0.73954732 1.74896179  95.87375812 -535.708606689116
1.11335351 1.67622802 113.47229716 -535.766767156896
0.80778455 1.62978352 101.71408676 -535.758469253602
1.40830703 1.73391682 105.55843986 -535.697766496479
1.12376761 1.74738128 100.47810242 -535.766577189510
0.97675960 1.77481323  83.06787627 -535.776745554736
0.94541534 2.22120994  84.52600755 -535.744015863427
0.97146547 1.95366850  78.63045300 -535.763830330867
1.18294664 1.68045096  81.11644963 -535.739835424175
1.10077293 1.74667313 102.15404195 -535.771124143476
0.93210016 1.65533028  95.50959562 -535.786137450301
0.95826822 1.87913512 133.30917711 -535.750224883366
0.94353616 2.27839388  84.99361926 -535.739321860719
0.97274987 1.89198440  68.79440728 -535.754674423798
0.89328390 1.63818691 119.15004545 -535.779013603821
1.07685979 1.45548200 100.10406636 -535.732815347493
0.95277436 1.71988561 130.35497713 -535.768239451566
0.98535586 1.66675534 123.85475401 -535.776863633608
0.93879695 1.69698705 136.36490691 -535.760832294951
1.01559335 1.75181774  94.26976962 -535.782622870383
1.00442671 1.78885727  80.96649171 -535.772373337702
1.08040481 1.56645734 101.25534473 -535.767128447201
0.94331591 1.74282477  73.91911183 -535.763098940641
0.99880366 1.74994094  82.77364967 -535.775234097582
1.12465577 1.66641438  85.48176378 -535.756873579936
1.06882203 1.87422898 103.06199832 -535.767684728125
0.96306363 1.63522434 116.36872405 -535.784269727350
0.95985852 1.66848967  68.88999560 -535.745237509619
1.19900271 1.62939170 108.71419262 -535.748642044113
0.93514039 1.61654653 100.66251497 -535.786222135476
0.97344639 1.86080277 109.64742494 -535.776481792292
1.08156903 1.84391462 106.94811811 -535.766939444115
0.91506764 1.56525999  77.16091082 -535.744826145176
0.76289207 2.14385670 102.55778798 -535.689944895101
0.97132268 2.11355709 121.23587289 -535.741836543870
0.89851713 1.80515746  92.47239114 -535.779746720578
1.22395162 1.69337075  85.65607639 -535.736384997367
0.94748972 1.65229383  75.87297572 -535.759861197728
0.99094119 1.83426412  69.23326295 -535.755438694624
1.05578365 1.47685906 105.89981529 -535.750360181196
0.90169332 1.64140391  65.53156715 -535.726128285493
1.42138535 1.67236174 115.05970682 -535.691063557453
0.95362000 1.79925711 101.48082021 -535.784901050833
1.01306802 1.80429803  87.63664592 -535.777258695961
0.77769820 1.56516962 104.88278406 -535.735912523558
0.82089090 1.69854155  76.36159848 -535.740539829963
0.94566918 1.98102280  94.47302615 -535.768529768084
1.00414235 1.66169326 143.42495352 -535.748284148753
1.15392764 1.69033473 102.88277970 -535.761282923045
1.17849812 1.71754434  98.44986717 -535.755155954799
0.74107641 1.65509924  87.76418212 -535.703190630791
1.38356186 1.72610810 109.77612943 -535.702871397155
1.46006368 1.70224478 124.62325630 -535.673617871036
0.79975899 1.69021714 105.64599988 -535.755589190751
1.00850959 1.82274474 110.11996590 -535.777295832412
0.92396317 2.22108598  94.27630084 -535.743621932940
0.71757648 1.67260110  76.62399793 -535.661419212389
0.94566425 1.65551765 140.11816585 -535.756848292987
1.08206470 1.85318995  99.79390081 -535.767868567621
1.10142073 1.73009324 101.85872133 -535.771584801044
0.97737667 1.95166281 120.65286216 -535.758131583355
0.95403153 1.92949462  55.24656952 -535.726640248451
1.18190166 1.64076197  95.39861665 -535.751257030920
1.02938005 1.71788838  86.53822379 -535.775967300482
1.14033294 1.66520446 101.89092581 -535.763882640026
1.05236135 1.75814232  86.17100846 -535.772580376097
0.96936874 1.62720211  68.96945642 -535.738525193982
1.09748395 2.06729643 101.16613737 -535.743705127689
0.96728236 2.02295300  90.71531729 -535.763865792666
0.95628374 1.81592480 103.64836344 -535.783287271444
0.93293781 1.62432382 142.18805067 -535.753975522219
1.02088894 1.50572315 104.07324513 -535.764285660577
0.77489912 1.70418800  70.94949305 -535.703210566286
0.93449355 1.46380161  86.77882305 -535.732973365946
1.20163596 1.68672628  99.18644059 -535.749912617577
1.01510808 1.60880598  72.26333985 -535.741753915002
0.96107903 1.70061761 114.45650623 -535.785222264373
0.77372017 1.70917524  93.73374317 -535.736677720140
1.07665967 1.77185835 115.48429812 -535.768386521377
1.10485749 1.68188016  61.12010708 -535.714672584965
1.40533011 1.62996044 109.65727792 -535.695590006421
1.50704248 1.67578414  90.04921084 -535.668672428898
1.06214575 1.77147436 102.93725190 -535.776619367854
0.97122715 1.81088016 100.54276017 -535.783782824926
0.98735615 1.50948718  99.00897094 -535.765708886011
0.82017490 1.88767931 108.14742696 -535.750146097870
1.17248089 1.76736780 103.61478993 -535.754905137241
0.92896562 1.57318896  70.24715230 -535.728323475270
0.98812359 1.51240338 104.70748755 -535.769634573201
1.00767092 1.86090834 119.78527544 -535.766257013438
1.02052929 1.69790609 136.67272934 -535.755786957465
0.89664889 1.66543639  95.64742402 -535.783628187980
1.12693773 1.58998558  99.40819336 -535.760585774474
0.96089384 1.70206730 105.59650635 -535.788869208332
0.96439159 2.00112186 103.81295115 -535.764833282601
0.84503874 2.00819259 105.54455722 -535.747590205283
1.48811548 1.65600242  97.82867479 -535.677799830423
1.05437433 1.68345283  97.92948642 -535.779523560806
1.04948084 2.07292709 107.83643850 -535.748281539136
0.82280969 1.65619762  74.33948487 -535.732661717446
1.15173867 1.69662375  95.80542968 -535.760395756108
0.86647903 1.75196283 121.34589157 -535.768006313047
0.67647433 1.72901471  89.67095834 -535.625924865584
1.04948938 1.66039188  99.32839011 -535.780126389349
0.99317752 1.75027150 102.35189200 -535.786062324705
1.00119359 1.79931818  76.84216220 -535.767195215719
1.19175136 1.81225504 100.67322145 -535.748127604381
1.00298692 1.62902926  70.44903954 -535.741788327014
1.37096420 1.63558685 101.60108722 -535.704952975317
0.96765006 1.75907907  83.18545014 -535.777357372484
0.97960550 2.15404860 116.66315128 -535.741564033259
1.20469328 1.65254848 101.77145580 -535.748742150289
0.94536991 1.83620636 138.43092068 -535.746378734601
0.99616055 1.67493478 128.18932203 -535.770914724773
1.08201793 1.69466226 115.43451277 -535.771201326324
1.05278139 1.68511956 125.74300122 -535.766696459023
0.92631226 1.82531662 115.68562980 -535.775363694427
1.28968322 1.62338241 107.57399429 -535.725821170973
0.74303788 1.72035121  79.56821889 -535.696333761725
0.97979674 1.82674875  93.55479505 -535.781458987445
1.45903045 1.69262610 115.03846865 -535.681791274031
1.33294974 1.69185746 132.82749678 -535.695043042828
0.86379107 1.72467885 110.87896809 -535.777029025146
0.95998075 1.75107782  93.54594833 -535.785896974476
0.70280624 1.70313829  81.72934858 -535.654649518312
1.13651214 1.79591964 109.83660251 -535.758821463285
0.92493982 1.91226875 103.22080335 -535.773622977743
1.31045316 1.92681482 104.75632010 -535.708534017329
1.44903326 1.70454982 101.77794680 -535.688176385954
1.11725315 1.88480472 103.73738208 -535.757750921547
1.09133052 1.67695603  70.59681878 -535.739121040581
0.96999938 1.61770377 110.50484839 -535.786136594083
1.00478071 1.87417662  90.66520365 -535.775306307718
0.97314078 1.66339734 106.48890049 -535.788448255183
0.97032101 1.83249968 134.53114581 -535.752668784696
0.93692285 1.85084278 122.88667832 -535.766381590133
0.99058081 1.47067464  91.80972080 -535.743486786017
1.01485965 1.63150709  81.36078366 -535.764843949214
0.79358623 1.88904087 100.43067575 -535.739073569930
1.25019514 1.70225374 106.54728157 -535.737987004448
1.00095782 1.61234273 124.66189469 -535.774154774623
0.85664664 1.64286217 130.12809210 -535.760541925902
0.97209337 1.99176184  88.57801970 -535.766279637377
0.86314758 1.74952374 116.56741312 -535.771725662121
0.88879255 1.63113975 119.95771959 -535.777600340114
1.19891271 1.69712345 126.17720509 -535.736229177566
0.94175730 1.90661616 135.01475727 -535.744813510775
0.89168118 1.71053358  91.96260334 -535.781405059046
0.97609062 1.58885122  86.63189192 -535.769846682596
0.94799125 1.91375558  73.89121016 -535.761381451182
1.14741503 1.62553838 114.59388925 -535.757990416906
0.96992462 1.97087514 125.49070465 -535.751174622856
1.26238661 1.70803190 113.72008903 -535.731781696814
0.86992111 1.74984500 117.18788122 -535.772777504603
0.98882038 1.70637129  74.76435516 -535.762025227787
1.00025679 1.54451838 134.85033995 -535.757035618115
0.99529615 1.88549712 121.94304795 -535.762595096352
0.97101797 1.72364346  97.79028674 -535.787806221531
1.09215628 2.06565121 103.84020004 -535.743981292932
0.99390433 2.28024942 107.47003077 -535.735189505759
1.07909723 1.90894639 103.65650206 -535.762500453142
1.00403125 1.56651777 116.96487190 -535.776486981174
0.98848447 1.72370167 108.08409952 -535.786317773657
1.02907604 1.71508542 104.24649824 -535.783483414060
1.14933644 1.69255583 132.26391410 -535.739775056323
0.82356408 2.17323471 100.74260224 -535.723773931027
0.82773641 1.77491067  91.76884376 -535.762919590473
1.45078284 1.63160213  95.79509242 -535.683669625759
0.78045051 1.92967857 104.42294048 -535.725540848984
0.95198128 1.78594896 109.34719026 -535.783560760548
0.88434172 1.67399781  97.05993121 -535.782707904782
0.92086934 1.80132438 120.14948398 -535.773150775501
1.01665825 1.74009415 112.14903372 -535.781139521871
0.96084665 1.64727343 104.75343795 -535.788647508032
1.13151873 1.68572759 124.57694380 -535.753461692948
1.00155713 1.74853954  82.97594269 -535.775245506567
1.01625605 1.54219467 103.41479814 -535.773231915340
0.87127523 1.83790434 110.06466500 -535.770669336602
1.08818948 1.66514557  85.40870767 -535.763624498659
0.96284864 1.90206491 128.38348122 -535.754726478025
0.98754520 1.84822514  92.10035139 -535.779056128514
1.10956616 1.55015395 101.44633742 -535.758718201107
0.68509041 1.61953944  92.76641198 -535.638669531157
1.11901154 1.54023627 104.36039973 -535.755758663138
0.98200380 1.53388755 134.84359096 -535.757216638303
0.85430119 1.80917607 113.93215521 -535.766585280345
1.14379258 1.55767067  96.80340410 -535.750138563928
0.78438550 1.70355859 125.67252497 -535.732765576886
1.10368456 1.72467745  94.32207671 -535.769670051987
1.26452488 1.70590914  87.64418067 -535.728772047555
0.89547327 1.63877789 116.96663584 -535.780919108670
1.01399488 1.77988908  77.91799695 -535.767701705924
0.96513671 1.43368246 113.69065463 -535.744360934343
0.98805854 1.54827099 112.62929486 -535.777217537178
0.83677067 1.70403749  75.99339003 -535.746453846527
0.95012498 1.90705700  94.71472182 -535.775839988622
0.95195352 1.69098379 108.42905343 -535.788499274401
1.00358453 1.95557797  92.80836248 -535.768790928172
0.96293917 1.89666971  92.85441390 -535.776390417928
1.15615289 1.73420624 110.81081111 -535.757702221120
1.06672161 1.67078983  88.75145088 -535.771260202016
0.98932039 1.92326387  84.38579911 -535.769541794361
1.19192370 1.69731564  88.24460192 -535.746511077827
1.06370236 2.06801763 107.47188052 -535.746893825925
1.06772917 1.78713364 102.86152102 -535.774799901177
0.96405653 1.84600340  58.92936145 -535.733572492599
1.05692302 1.69790408 100.09382263 -535.779736235216
0.90492438 1.61669900 104.82630181 -535.785059966047
1.35679518 1.71176894 121.30420936 -535.702111752398
1.34352344 1.62260290 107.19249454 -535.711524587453
1.07110142 1.63695590 118.43718120 -535.770968055644
1.09037971 1.84466475 100.41610011 -535.767037676701
1.40645664 1.79963558 106.10842459 -535.694884178746
1.00270328 1.67536309 105.17065852 -535.786663315303
0.84719853 1.60711337  88.66641162 -535.761875716370
0.96925853 1.81604126 100.51513369 -535.783472603773
1.18276075 1.68672635  87.49725447 -535.747564790247
1.09138392 1.68740519  59.37529604 -535.712062463961
1.08880466 1.72010258  92.93271761 -535.771784249464
0.99874898 1.56198973 100.59386780 -535.777452829084
1.06514443 1.59320239 101.39628737 -535.773476065310
1.11498040 1.70755446  59.38088520 -535.712281282735
1.14435065 1.70018989  79.18991635 -535.746698297586
1.09725080 1.78206979 105.85658382 -535.769240312193
1.12669948 1.68253807 116.58268992 -535.761935567270
0.85369340 1.69281720 103.20674435 -535.777287654666
0.79025756 1.64678439 100.36872655 -535.749438670087
1.09018555 1.81349089 103.49513896 -535.768994858055
0.82683537 2.00736085  98.71897468 -535.743062540806
0.85678106 1.76331866  96.37061941 -535.775003407458
1.16580691 1.56974835 109.56321341 -535.750684131068
0.97945654 1.87164602 127.95659292 -535.757798294994
0.97846722 1.95658448 137.33202143 -535.736297785614
1.17883718 1.69004488  87.69144719 -535.748774257802
1.09181259 1.69802695 111.82288975 -535.771536034911
0.91996157 1.62946908  74.96076321 -535.753112285572
1.14554771 1.71055205 105.26061030 -535.762694111875
1.13402707 1.75174372  99.15658072 -535.764203125088
0.93787172 1.89713862 127.56592198 -535.756072154931
0.93193823 1.58989430 134.33011091 -535.764373148926
0.84012321 1.69493831  70.79866413 -535.735071053410
1.46218761 1.73965755 106.66705650 -535.683933120747
0.96775296 1.87283496  73.08168677 -535.761913757048
0.95010681 1.42112080  88.73861897 -535.714736811888
1.19998437 1.78683856 103.86080615 -535.747394281472
1.27731881 1.81255139 103.28267682 -535.727031522901
0.91799108 1.46724676  91.26485466 -535.742015778036
0.71144523 1.76409199  96.47663394 -535.677640816084
0.91101461 1.90402172  94.31013260 -535.774036066793
1.21527469 1.67178989  68.39506152 -535.711074210155
0.84896832 1.63986810  85.09082953 -535.761138529902
0.95017931 1.53879238 113.48188860 -535.777047385475
0.97294415 1.71569905  77.51474556 -535.768286845290
0.98672344 1.79293558  81.82593248 -535.774541440636
1.06148491 1.75019864 107.04984082 -535.776886507675
1.05950204 1.62794190 121.23229519 -535.770333078246
0.87576480 1.62585487 111.70022849 -535.780134669734
0.86643287 1.78237058  93.34949495 -535.775474989389
0.90919675 1.74281503 101.27032227 -535.786108618355
0.98369313 1.55340573 115.00940345 -535.777470757035
0.97139374 1.93274528 128.94833748 -535.750701907940
0.95180224 1.64853650 138.89841567 -535.758843532927
0.89672567 1.83498700 107.19047698 -535.776913555265
0.98083238 1.93739409  84.66755785 -535.769058001109
1.20639749 1.52523329 100.70303490 -535.726871627288
1.12431230 1.88391117 101.47522845 -535.756980848923
1.01873845 1.95155775 108.26068551 -535.764622536182
1.04774694 1.63223604  98.61468268 -535.778710363276
0.95831321 1.80272992  90.76918397 -535.782428376675
0.98951387 1.64823057 102.17952739 -535.787105298402
0.95306469 1.79529921  86.34278107 -535.779836380419
1.12450646 1.70263636 100.58450371 -535.767426278350
0.97135025 1.57508404  91.17372644 -535.773727218543
1.34628252 1.74381461  96.15311825 -535.712913342167
1.05291313 1.67262904  74.11399216 -535.751598038733
0.91715728 1.70105476 101.30268768 -535.787959867578
1.07147174 1.62791573 110.87250015 -535.774881119368
0.86290229 1.74383293 110.93011570 -535.775754293245
0.84909840 1.72752176  69.44410715 -535.737619837856
0.96415448 1.78971079  64.98235355 -535.746228195109
0.99359349 1.85215569  99.95319666 -535.779319007904
0.98442021 1.87680378 119.19829659 -535.766991427885
0.97108585 2.10150330  97.01456021 -535.755796038162
1.00700169 1.76763923  90.61341241 -535.781155695181
0.91611172 1.75929767 115.52116472 -535.780244581624
1.05264730 1.81744839  98.69007563 -535.775395990608
1.10408467 2.02726360 103.93770750 -535.745765378162
0.82295849 1.66531332  74.41999677 -535.734052144059
0.95842506 1.90798163 103.10704186 -535.774966579980
1.44826935 1.68597677 119.47181012 -535.681362592525
1.11991535 1.63301569  95.20788473 -535.764158340507
0.81910943 1.62533186 117.33817041 -535.759973865087
1.16007634 1.70300443 126.80012540 -535.744185611360
0.95700032 1.99601726  83.12048381 -535.763866556935
0.75506333 1.71526661  86.16880887 -535.715932947887
0.99214402 1.64995457 143.39594501 -535.749772623262
1.13352233 1.89413355 102.92592599 -535.753813568879
0.95596486 1.54089951  71.13909091 -535.722423436096
0.91819825 1.51818924  88.00846498 -535.755032264346
1.02742895 2.21973041 108.92463044 -535.736551816801
0.79534376 1.70148348 112.99278357 -535.750280507354
0.98241393 1.80377314  74.81220683 -535.765320982531
1.27090985 1.66110103 116.47177487 -535.728250846097
0.94169217 1.59213473 133.38519198 -535.765889022353
0.90073321 1.93728357 102.43606668 -535.768904055939
1.05986951 1.83381499  97.71984274 -535.773079859766
1.36625325 1.56161123  99.08134861 -535.697867310433
0.83676364 1.79136488  97.91728509 -535.767479093611
0.96032517 1.70460245  59.49543426 -535.721656819879
1.19394921 1.74901752 111.21839742 -535.748188193390
1.32538841 1.59659062 103.96022280 -535.710779667712
1.29239553 2.09864505 103.55884761 -535.696113337308
1.10648431 1.60460257 101.54647812 -535.767188990292
1.15415054 2.22681219 101.55451557 -535.717024645443
1.02543039 1.63974540 127.25566865 -535.769264677833
0.91441287 2.01124804 107.24810585 -535.760499166594
1.04265142 1.68468263 113.09165651 -535.779209864985
0.90752238 1.69733857 128.72012953 -535.769628617774
1.08036160 1.56097745 105.87063011 -535.767430942597
0.97700095 1.71210167  72.01472201 -535.757320722953
1.28532593 1.69821609 126.85272460 -535.714413251837
1.21478674 1.83481542 102.32030820 -535.740838905174
0.90666212 1.68964074 118.62226856 -535.780528598543
0.87139545 1.69285292  56.60043418 -535.696680753455
0.93983532 1.68537927 143.89140195 -535.749534092361
0.87844633 1.92844317  95.73854881 -535.766984545909
1.03781433 1.72800689  93.41865600 -535.780064101318
0.88255796 2.22318545 104.65098314 -535.735717478690
1.29506022 1.61267891 106.65216245 -535.723583055645
1.30063979 1.73926870  96.68982507 -535.724659616204
1.29474455 1.68906543  87.68594537 -535.720715306004
1.42738377 1.69678460 116.09229184 -535.689011926972
1.03103162 1.66668264  89.53679357 -535.776932907707
0.92688305 1.64589531 112.83094602 -535.786223085202
0.97462432 1.78046716  68.30328919 -535.753247047234
1.14030710 1.63157251  99.17026663 -535.761698493700
0.94336309 1.52936156 117.52932101 -535.773745656013
1.15878067 1.95175676 103.38717139 -535.742650258477
0.99404410 1.66106222  64.32989696 -535.730323335269
1.01350961 1.78461679 109.05513479 -535.780350434366
0.90961170 1.73093073  82.98943894 -535.775028041879
1.19183063 1.74331664 106.84732962 -535.750810823847
0.86303660 1.81070473  94.73736299 -535.773474343991
1.23376848 1.57581552 108.44174486 -535.734937777034
0.97799458 1.55381633 125.68088893 -535.770352153692
1.02329777 1.80484351  88.31096574 -535.776594852093
0.95226615 1.56359687 117.98897078 -535.778577109857
0.88633591 1.68611939  72.15954600 -535.749514341099
1.30422224 2.10667731 102.40894257 -535.692756688803
0.98762586 1.62726316 120.98313532 -535.779254999140
0.95775728 1.84146063 102.82770559 -535.781338145786
0.94408794 1.87973969 116.12160149 -535.770313378799
0.92474176 1.60923923 118.86375629 -535.781253532088
1.12380276 1.61928432 105.56774804 -535.765394425852
0.96251256 1.52543411  98.34835566 -535.770708270808
0.89212149 1.65911828 132.40809882 -535.764371224041
1.15892580 1.68484934 110.78765149 -535.758382301360
1.06557890 1.96119109 101.36895184 -535.760082485049
1.01122168 1.77393651 130.08132882 -535.761484147831
1.09178301 1.85931616 104.22199086 -535.764759692669
0.72422210 1.73499101  85.94866164 -535.686244340261
1.14108870 1.61777182 100.10761302 -535.760781692691
0.89865684 1.68906537  69.26855045 -535.744517826395
0.84312214 1.62837974  98.61945466 -535.771450827230
0.93387641 2.00829323 119.28126993 -535.753516968798
0.99080189 1.76315800  73.41267672 -535.762097405407
1.00865138 1.99251315 110.59193828 -535.759903200817
0.93886778 1.72457423  89.47286615 -535.783603242923
0.81214457 1.56257177 103.95064216 -535.754527075141
0.91190468 1.78792377 108.01537259 -535.782256791242
1.04539243 1.59873201 109.50879861 -535.777526049303
1.37067588 1.70753275  94.26923326 -535.706315368428
0.97889255 1.89267263 133.27241082 -535.748388929718
0.92537237 1.72808125  98.36802199 -535.787531245115
1.20264728 1.62789452 105.89139137 -535.748112461112
1.05117906 1.63344445 124.24202181 -535.768880877423
0.91402242 1.67850760 118.91332403 -535.781260456671
1.00913288 1.87980501 105.53050874 -535.774165567988
1.02933223 1.68425858 106.75420209 -535.783486770471
0.91048777 1.53744148  86.69942275 -535.757574048190
1.13232874 1.75549313  96.47373082 -535.763965574393
0.97979749 2.16189828 123.94138727 -535.735138036817
0.67472289 1.72964748 115.68961151 -535.623128764621
0.95219865 2.22025427 125.92399904 -535.729702511923
0.98434977 1.79568914 112.66291635 -535.779879706860
0.94523724 2.13808157  89.00739354 -535.752320128660
0.95111652 1.71685547  92.95074691 -535.786231332439
1.00425040 2.08127090 100.97223998 -535.755166240944
1.04471725 1.79813098 107.35917145 -535.776284767921
0.87497160 1.67197349 126.67058482 -535.768317823652
1.19828394 1.70299101 119.21104616 -535.743366682024
0.99886921 1.93615891  99.49384803 -535.771069306152
0.94535043 2.20795344  99.40301538 -535.745054278200
1.22477651 1.71016980 118.51347516 -535.737423414075
1.08162213 1.76027700 114.55265113 -535.768978651707
1.08283661 1.86155548  98.29390375 -535.767111579238
1.12571789 1.71352097 103.58209824 -535.767061560660
0.90281423 1.70895065  59.08334929 -535.715821228673
1.01517751 1.60162974 111.60908432 -535.781133452960
1.04175802 1.66228651  67.43221386 -535.736100201724
0.96864354 1.71446126 130.24411017 -535.768342747774
0.93785896 2.02366564 102.89164506 -535.762507512383
1.13427741 1.77088637  98.92844655 -535.763315230783
1.11197309 1.69451855  70.54091098 -535.737463643051
0.98327293 1.64927645  93.87050706 -535.784060263195
1.10588396 1.66012286 102.75534720 -535.770913554733
0.98694530 2.17104572 101.64490962 -535.747198222366
0.93211956 1.84589655  85.11135941 -535.775959866847
0.94041230 1.68982108 131.10242088 -535.768720626262
1.47684542 1.70078787 116.98121452 -535.676105951334
0.97197470 2.08838014 122.70222254 -535.742750444747
0.92591654 1.57057244 118.79098740 -535.778426495172
0.86872037 1.50070579 105.20046684 -535.760715928892
1.06171537 1.65116725 137.26629573 -535.750462024992
1.38210545 1.64473991  93.48826407 -535.698933945388
0.92257576 1.85591869  82.72032449 -535.772842148648
1.00083759 1.78747398  82.68736071 -535.774607264951
1.00177332 1.61483162 123.32517874 -535.775498194079
0.98625758 1.75296124 114.04637101 -535.781873713222
0.94354507 1.89358259 112.89006702 -535.771403244901
0.97200685 1.85559290  92.36863354 -535.779369827682
1.02052323 1.60476730  72.83409541 -535.741912423633
0.87468056 2.06308866 105.35126217 -535.749692904367
0.96328436 1.58566365 134.77097686 -535.763401113044
0.87649527 1.76959810 104.70338844 -535.779488509250
1.08086211 1.74631306  98.67562973 -535.774641958227
1.13779164 1.71157978 142.18809283 -535.725937366280
1.14690759 1.67297593  95.73112395 -535.760923253648
0.85264197 1.77711355 113.76817602 -535.768968761296
0.83461964 1.53248026  94.71550348 -535.751535960171
0.93328778 1.73776351 148.79604752 -535.737184142826
0.89364505 1.79500768  90.96776570 -535.778891230302
1.06943874 1.42326207 101.67949568 -535.720148353248
1.01407004 1.49610538  91.76459362 -535.751019110692
0.87512818 1.72563298 123.08250515 -535.769861989806
1.05749363 1.61609744 118.92051925 -535.772120557084
1.06456286 1.69189689 135.78012746 -535.751144378925
0.87910898 1.68613527 118.39153601 -535.776896665574
0.94955527 2.04002385 124.93603978 -535.745160208980
1.15372936 1.57802003  98.10337263 -535.752376160823
0.91549377 1.65800809 136.88196209 -535.760578789535
1.21900819 1.67151060  86.92241624 -535.737736790506
0.80498966 1.69860042  75.22484872 -535.730694936657
1.18656920 1.76335386  96.23507351 -535.751638744808
0.98160111 1.69597872  66.84995393 -535.743117279778
0.95639631 1.68987233  95.93719148 -535.787673157947
0.83683463 1.76031689 114.55877853 -535.764644700766
0.97778958 1.94210871  57.08657007 -535.731337077027
0.97611193 1.82369116  76.95897839 -535.768407924328
0.95334118 2.10395875  73.42598112 -535.748470863788
1.05608983 1.85691250  94.20007652 -535.771452913724
0.71533949 1.68631332  78.20150047 -535.663157176322
1.11756131 1.74048992 102.34115315 -535.768059906973
0.98665265 1.67782478 117.79669767 -535.782181955943
0.96628652 2.16851257  61.33714424 -535.732495559033
0.78165153 1.64667769  84.90787746 -535.730494311505
0.89055185 1.94627431 105.08266352 -535.765550564636
1.46374777 1.72689452  98.61715468 -535.684193223703
1.14760776 1.76249330 111.34940228 -535.757839999273
0.90432207 1.51933231 116.37920160 -535.770363657405
1.26392357 1.86272336 100.30754994 -535.726964519057
0.91467546 1.70324627 119.34636668 -535.780143710640
0.85502682 1.71675022  74.04086761 -535.749157890171
0.89854256 1.72275366  56.81623335 -535.708847488678
0.94794212 1.74084787 127.22533603 -535.770966931385
0.95514980 2.24649400 145.15425148 -535.711192145115
0.84581506 1.62536017 106.07516247 -535.773756303747
1.06300211 1.74720605 115.60002255 -535.772119783512
0.94639107 1.86659692 118.56108030 -535.769500689959
0.92883770 1.89405937  97.16415144 -535.776553171676
0.94851244 1.54473019  97.13043415 -535.774330448359
1.42214897 1.78574631 106.57168239 -535.691717515807
0.96509453 1.51793361 114.44589876 -535.772351643584
0.77970497 1.61478844 103.73208484 -535.742043888924
0.99896217 1.59578419 124.87386826 -535.773295166079
0.85576882 1.49814751 112.16624032 -535.757931174776
1.30393001 1.68484463 129.02796832 -535.707443555820
0.90932852 1.72963148  73.72252637 -535.759750147692
0.98321250 1.91752299 116.64006211 -535.765208237814
0.95219717 1.75061435  99.83669123 -535.787692874697
1.18026992 1.72588178  91.86271946 -535.752147360777
0.96527864 1.58896469 139.71930904 -535.756612846088
0.96316227 1.91528675 108.76085246 -535.771765324553
1.21956179 1.66143310 111.57814030 -535.743764271908
1.08040611 1.72925138  89.31155014 -535.770894743049
1.10114160 1.66777644  88.58016661 -535.764884003578
0.78055639 1.74583998 111.09944965 -535.739999529857
0.87347024 1.99136611 101.47486691 -535.758622780279
1.03774359 1.70208103 111.15091682 -535.780565784937
1.03597351 1.70471853  93.84705280 -535.780599711853
1.15767149 1.50501712  99.64709871 -535.733154036305
1.01043494 2.14708684 102.34628634 -535.747575360209
0.98428212 1.55306814  72.10199050 -535.729081468977
0.93030134 1.62369747  73.41385077 -535.749041730802
0.93121136 1.71445071 113.11963933 -535.785314776733
1.37496155 1.68411448 110.71991304 -535.705222924742
0.92282713 1.64051872 138.08324897 -535.759625698767
1.14386315 1.65187582  93.57232721 -535.759381202627
1.16869235 1.81431703 104.58823270 -535.752556600061
1.10163119 1.80553301 110.35354336 -535.764809489784
0.95774332 1.73792412 100.76897627 -535.788208910967
1.24943240 1.83697504 104.10672862 -535.731889279781
0.95066922 1.57915652  99.54271457 -535.781893957448
1.14313481 1.70603484  72.11950003 -535.735798261059
1.25411086 1.64715471 111.38247700 -535.735004880491
1.01824842 1.75973830  99.19292266 -535.783258103029
1.03562659 1.60182289  93.90251100 -535.774616890933
1.36767871 1.56312963 104.09011416 -535.700014307577
1.18977631 1.84289182 107.36877954 -535.744493655166
1.00464491 1.49400314 115.30574566 -535.763328462469
1.35012159 1.67910929 122.47753702 -535.703282741625
0.73297700 1.73873497 115.17798224 -535.698812650675
0.94285033 1.65849844 133.21189499 -535.766894558707
1.05232276 1.41075630 111.04758158 -535.721381068107
0.95301278 1.77915316 116.36419403 -535.779470411445
0.97150783 1.55249134 100.90096538 -535.777794683858
0.99495553 1.63392147  93.05927637 -535.781547855985
0.95955816 2.07221474 105.28346741 -535.756727031711
0.91033771 1.72080154 104.52105342 -535.786857530027
1.17563996 1.69729926 136.41919742 -535.727621134665
0.79052813 1.94146937  99.70145863 -535.731868664189
1.33091416 1.70021853  71.76488801 -535.693344603898
0.99653796 1.79492483 115.77858142 -535.776813682043
0.78996241 1.77474107 105.26426992 -535.746154415359
1.21527498 1.81652150 107.07933590 -535.740748137588
1.05904381 1.71952520  64.14775423 -535.732939648583
0.77761065 1.70642766 132.13964525 -535.720108316231
0.98761676 1.89054078 132.70666607 -535.748963379431
0.88023741 1.75401504 109.38341200 -535.779623598118
1.03268964 1.69361612  83.32078321 -535.771112766384
1.16356056 1.69149322 113.18464742 -535.756041206193
1.02299114 1.73076510  73.93318300 -535.759229329046
0.95711830 1.70119352 124.14972714 -535.776748443762
1.12991729 1.57942938 102.08414506 -535.759559898059
0.94063322 1.95098513  79.92772036 -535.765123443938
1.04762733 1.72503358 126.99752300 -535.764294145052
0.96492083 1.73376559  91.53284771 -535.785045313851
1.02972360 1.91870345 110.55495950 -535.765507393465
1.20283013 1.50403723  99.79574010 -535.721942648570
0.75038368 1.67262655 115.29366264 -535.718159402914
0.95967195 1.81615295 121.21537313 -535.771726904696
1.00029671 1.69757088 127.09034026 -535.771144260879
0.96827791 1.67527327 138.73063039 -535.757873432934
0.92840388 1.70970803 141.98683689 -535.750858142555
0.89699595 1.90930470 113.05434695 -535.766001737587
0.92467413 1.71140410 137.82861453 -535.757232921630
0.88932002 1.86363093  92.72604176 -535.774368131572
0.99070687 1.81459173  76.40623654 -535.767111238101
0.96483168 1.68860969 107.20725858 -535.788642469871
1.01971691 1.82033620  92.18269276 -535.778153239012
0.98716689 1.53480703  74.47548060 -535.730009211933
1.06910143 1.69304258 102.94160171 -535.777995723283
0.86089739 1.69539218  69.56619811 -535.738304673667
0.91826030 1.67280547 114.24544666 -535.785027932450
0.97098424 1.89475922 115.07613946 -535.769424536489
0.91629203 2.01116891  92.59385652 -535.763778964928
0.87846358 1.73078748 105.53624253 -535.781792363232
1.00090993 1.63071103 100.85990891 -535.785012705516
1.02410682 1.71772366  93.25129842 -535.781770550189
0.94641058 1.81675713  63.11464969 -535.742574605303
1.27607863 2.15009353 103.71459100 -535.695077941359
1.03442097 1.64844175 112.65547237 -535.780503715413
1.07536080 1.73030936 103.48471172 -535.776208784877
0.97224824 2.12351885  70.39681610 -535.744327545069
0.97660438 1.56966830  78.55692560 -535.750769713405
0.96281612 1.73415758 104.61468710 -535.788023894890
1.11849115 1.72679682 121.74494839 -535.757628378292
0.85702732 2.03945543 104.10613990 -535.748389413606
0.98677044 1.69822900  86.14841695 -535.779038484330
0.99339396 1.70367565 124.56654274 -535.774412879021
0.99432438 1.70621792 108.25211097 -535.786383576609
1.06606886 1.78447573 102.69305569 -535.775260947831
0.97004442 2.07250246 117.89298779 -535.748570373068
0.95608335 1.44043775  82.83922256 -535.712239769187
0.98381818 1.78306458 108.03837294 -535.783362339298
0.98225699 1.99885156 121.63383637 -535.752051120112
0.89651812 1.69353257  77.38401634 -535.763016026010
1.20421541 1.66538317  91.22969662 -535.744742004967
0.96059713 1.78962115 130.98465249 -535.762052506111
1.13012924 1.71538538  86.15367829 -535.758599356163
1.03497341 1.64220561 105.54880210 -535.782220495387
0.88282687 1.81376966 111.77522207 -535.774195464012
0.96014995 1.66430487  81.64098616 -535.771976487555
0.93881673 1.56666818 112.33042964 -535.781481601105
0.86506668 1.66550207 111.83880680 -535.778476763262
0.71527766 1.69669415  98.05593901 -535.685005031972
1.07854593 1.70224887 119.36727279 -535.768470693086
0.97820971 1.65216536 107.98330228 -535.787715774895
0.94912589 1.56918108 109.74610520 -535.782431246008
1.43883438 1.66935299 111.37044605 -535.688290725811
0.98858299 1.73572036 101.59840756 -535.787007267356
1.05266434 1.61422242 108.06087173 -535.777889766033
0.99911501 2.06304850 110.36913891 -535.753392089625
1.08115550 1.82256000 102.84119637 -535.770050698886
0.68644959 1.70734472  79.69946105 -535.628743639653
1.18914644 1.75808944  95.66746596 -535.751084236728
0.97521815 1.44396535  98.26427579 -535.740836048672
0.80694414 1.70732655 111.50524605 -535.756953016765
0.99255251 1.44363443  88.95064303 -535.725563656969
0.99152322 1.73192022  83.58609328 -535.776576328590
0.98094529 1.60659845 119.55544387 -535.780044859556
0.95354808 1.91973142 134.44002112 -535.744576846313
1.14696415 1.52767965  97.27391721 -535.742517352212
0.87459062 1.64001929 126.73021037 -535.768656348768
0.97753253 2.21204370  94.98344109 -535.745100264273
0.97090900 1.56908280  75.70909093 -535.743914746681
1.21404792 1.65870999  89.40555582 -535.740479243540
1.06157966 1.58653248  90.27188219 -535.765041397668
0.95804699 1.43430685  74.72515253 -535.684631064838
1.34750013 1.63755573 108.87173769 -535.711426331582
0.95515685 1.86118987  91.86372376 -535.779119554272
0.80253363 1.73904090 113.15836644 -535.752142071143
1.00254234 1.64408587 107.02606257 -535.785851104962
0.88142927 1.98495039 107.28929246 -535.758698852929
0.98464747 1.89477397 117.38488509 -535.766838995732
1.21668275 1.65372632  88.24989474 -535.738401038051
0.86310978 1.83872052 101.59510212 -535.771728200249
1.19733288 2.06323759 103.67948036 -535.722448509048
1.34549706 1.60816552 107.74411507 -535.708972670841
0.94214417 1.73778784  97.83217153 -535.787770583976
1.14619977 1.66054678  80.47790719 -535.745272373904
0.98600623 1.73256490  70.76947939 -535.755743569070
0.97033735 1.68397336 119.64602672 -535.781413886659
0.96939675 1.71467200 126.06481987 -535.773585336973
0.89718440 1.61346245  79.62352536 -535.758413000721
0.85831121 1.89494752 104.20698617 -535.764422441154
1.47692154 1.53720344 100.19057012 -535.675715876697
0.73070654 1.73212020  85.56365884 -535.692711953689
0.94588373 1.97575900  89.94293103 -535.768389398177
1.00296952 1.70809469  80.81594469 -535.771400094442
0.93020458 1.71759471 113.13031724 -535.785133670135
1.44160826 1.92508403 102.55994809 -535.676813918771
0.96478624 1.93886357  93.00533362 -535.772519947930
0.84743824 1.57268646 106.20928462 -535.769679890750
0.88279923 1.71720377 109.78198088 -535.781821768101
1.20045485 1.68337291 141.98304076 -535.713353086434
0.95688146 1.74082865  93.38349805 -535.786124642466
0.96214119 1.73520080 135.65152784 -535.759473743915
0.93856714 1.76424439 133.29316345 -535.760800532990
0.87830273 1.80107747 114.46995367 -535.772615016614
0.80694889 1.68703020  71.32903016 -535.721517317210
0.74266235 1.73034435 111.08218974 -535.711219549465
0.93064632 1.79632806 142.00486987 -535.743726090576
0.71850033 1.71317710  97.38546086 -535.688242128044
1.32748781 1.74200503  97.88032280 -535.718080588821
1.02799607 1.70813411 145.81736759 -535.739250091742
0.79440832 1.81321234 105.76492412 -535.745528184922
1.02909553 1.79922858  93.04906530 -535.778605991816
1.01168209 2.08104054 103.68680335 -535.753668435098
0.97269690 1.78903564  97.83670552 -535.785084406368
1.04518489 1.71010979  71.57644829 -535.750822443557
0.89473482 1.84569350 100.41136530 -535.777458711300
1.01370048 1.76277437 112.07659341 -535.780180482026
0.92869646 2.06390353  98.80221498 -535.758853991963
0.95628190 1.70455338  85.39185845 -535.779463778922
0.96694035 2.13450152  70.93094211 -535.744148363275
0.97896014 1.54127146 120.87589430 -535.772604498072
0.87549386 1.82109284 109.87611023 -535.773238381394
0.94367471 1.68276737 148.17363817 -535.742564568468
1.09464366 1.71654922  96.53603777 -535.772307256859
0.90405928 1.51982564 104.82340985 -535.771038937022
0.94809579 2.08190407  75.00811737 -535.751317819307
0.67862685 1.57393936  96.67448047 -535.626952761984
1.45579146 1.65878262  91.56089939 -535.679643591269
1.05889124 1.77597916  93.30870755 -535.775681997517
0.93994990 1.76751394 115.42814738 -535.780955304632
0.98803951 1.51213934 145.11400351 -535.739515979964
0.96351617 1.49009461  86.69012879 -535.743981684553
1.08062804 1.69894510 146.25674435 -535.730820531604
0.69156221 1.47498474 102.98835072 -535.627799120465
1.16768957 1.63135053  98.71253331 -535.755435531601
1.01784447 1.88346318 100.45602409 -535.774288680025
1.12310459 1.91016068 104.25744318 -535.753992198224
1.06767501 1.66225028  94.17837917 -535.775005008631
1.06808742 1.64611720 129.25726275 -535.760538344382
0.98710567 1.53835967 119.35584444 -535.772599511777
0.93656839 1.91411666  87.06064730 -535.772568222129
1.06642397 1.53943137 105.74761790 -535.766031221332
0.78226842 1.69791596 110.89129180 -535.743623349926
0.97509614 1.84378764 131.26774297 -535.756216668671
0.94365711 1.70456395 127.25076320 -535.773035439528
0.94936814 1.90665615 132.65595179 -535.748440907819
1.08343258 1.58590963 100.01908533 -535.768887547421
0.98485215 2.17620269 106.73222126 -535.744974670971
0.98365771 1.71148791  81.83315049 -535.774304868687
0.90647210 1.67214963  94.02474987 -535.784036147573
1.15900064 1.44480342 104.09864461 -535.714665428638
1.03935190 1.62677337  93.14624140 -535.776148989881
1.02401835 1.58101670 122.79417581 -535.771426961485
1.08201512 1.60259385 109.45750537 -535.771815062850
0.95880074 1.51267584 108.90390257 -535.772064033629
0.82007206 1.91878202  99.23324547 -535.749629690809
0.96190142 1.84247461  75.79048318 -535.766699210871
1.06271761 1.95087894  98.66826687 -535.762074630999
0.89840688 1.93155093 106.80523175 -535.767557470971
0.93915345 1.77176846  74.01582640 -535.764026730773
1.04067540 1.81302321 101.27833532 -535.777303207404
0.92763494 1.73729155 135.93255996 -535.758530617648
1.04233379 2.18401679 107.70532604 -535.738470148241
0.96204569 1.61683122 126.96685948 -535.774351503939
1.28443291 1.77384739 104.26393964 -535.727471033379
0.97218387 1.59016437  81.51462659 -535.761522727132
1.02233682 1.75266599  93.73291654 -535.781628143954
0.91210121 1.66325285 117.58188670 -535.782385994264
1.11329380 1.70233816  91.99655364 -535.766497123091
0.95630030 1.63046764  91.56507131 -535.781743701798
1.01505788 1.95952542  93.50227457 -535.767430223508
0.96702476 1.72059684 133.82013643 -535.763029444046
1.03166076 1.63428023 106.21524799 -535.782269519317
0.88260714 1.66025080  74.95458334 -535.752451715718
1.03838091 1.98733881  96.41472996 -535.762043066631
0.97205082 1.71040123  71.99195307 -535.757270954175
1.11992688 1.44178696  98.96239128 -535.717122032900
0.79488465 1.69291977  90.66760781 -535.747676620797
0.98698173 1.74349356  89.64612839 -535.782634555129
0.99064534 1.89959640  91.54271783 -535.774614835234
1.16746744 1.60637441 107.40561385 -535.754685453015
0.98439640 1.62989820  90.80745330 -535.779904415118
0.97619240 1.76772715 109.81068395 -535.784003135329
1.20119890 1.92260320 101.25921518 -535.736508577417
0.95552891 1.63552324  95.05513294 -535.784995515842
1.07772918 1.70525315  67.60114746 -535.737485295108
1.20252222 1.78292282 103.18750032 -535.747158408836
0.90884263 1.65508531 121.52268285 -535.778844806491
1.10795069 2.15366664 105.88732276 -535.731537797613
0.98938830 1.61108922  93.53439604 -535.780189014175
1.04230264 1.78462120  91.16787594 -535.776757451096
0.68345377 1.88827205 103.01730935 -535.628382915697
0.97719294 1.66138776 106.75383811 -535.788177558615
1.20776286 1.69714956 119.51213693 -535.741016032935
1.34310772 1.67370902  89.12326919 -535.708860467851
0.94654078 1.52684659 119.51771846 -535.772179211771
1.28117152 1.63835837 111.84282600 -535.727655343335
1.27200693 1.65898983 101.80613122 -535.732394570761
0.83350734 1.64235792 109.68919637 -535.769703757402
1.26103022 1.72563761 104.13857502 -535.735293243168
0.93174938 1.51535150  92.52719521 -535.761799285181
1.11720100 1.56567942 108.12052863 -535.761006727658
0.95658245 1.57922369  74.93561239 -535.744559428121
0.91437741 1.71726786  58.26398799 -535.715762400304
0.78986658 1.72507142 108.96512487 -535.747965834853
0.97639674 2.05842020 111.86493650 -535.754244544038
0.84584608 1.74668239  91.38708846 -535.770104394272
0.97077446 1.84401664 134.03671536 -535.752303278077
0.96883061 1.49869291  80.79531017 -535.734315240315
1.08543088 1.64541187 130.16677693 -535.756322829508
1.01815887 1.55919847 120.67761392 -535.771599735635
0.94482568 1.64119986  96.90542492 -535.786488471545
0.95753524 2.04503066 120.40637196 -535.749252237635
0.89558005 1.58925578  86.75442993 -535.767035473738
0.91569603 1.55226827  83.36628847 -535.755618703782
1.01587490 1.64220610  59.20986510 -535.708222923820
1.07196268 1.66015841 114.90241732 -535.773633262412
1.07626833 1.92421028 103.71470079 -535.761441917272
0.86689550 1.83986736 100.22374524 -535.772704775232
1.18151395 1.67921639 112.08417052 -535.752655592181
1.10492028 1.92851420 105.84616145 -535.755105538644
0.74492799 1.67904618 118.84233223 -535.710605313662
0.96553896 1.74321603 113.90767196 -535.783539345735
0.91686539 2.14688598 110.40300134 -535.744955990638
1.00706772 1.78729955 105.07768126 -535.782289775030
0.95819484 1.83993529  94.08840727 -535.781348525501
0.89076684 1.69604355 109.06180768 -535.784077765873
0.75002145 1.70747346 121.67033394 -535.711297091973
1.18342310 1.60492802 104.07175135 -535.750863026070
1.11300055 1.79074612  96.32713241 -535.766287173366
0.99993394 1.78797962  92.61229263 -535.782000609938
0.90108560 1.72123152  91.30177549 -535.782221614928
0.89757750 1.63463735 101.33481862 -535.784728746028
1.22899751 1.72858164  89.06695442 -535.738858908554
1.29085880 1.43038699 100.10589324 -535.679881801321
0.97540579 1.93359590 119.86297738 -535.760891079600
0.89297920 1.71356231 113.74466837 -535.781523400218
1.25409091 1.78660329 102.19962631 -535.734623604749
1.23418303 1.67827306  71.42735681 -535.713098488249
0.95672705 1.58358090  72.12804273 -535.737950522086
1.17253039 1.69437858 132.43421139 -535.734313262082
0.93838882 1.71248252  74.92514930 -535.763274183933
1.16684445 1.67769524 119.12343119 -535.751231623060
1.32706816 1.68866019 139.38333900 -535.686683719786
0.98307283 1.89389482  90.93757805 -535.775366560286
1.03173064 1.66878075 106.22111247 -535.783230883083
1.03132364 1.61035357 103.46465556 -535.780688334587
1.08430838 1.59177637 109.72836979 -535.770369868272
1.19306910 1.70148794  63.41297618 -535.709208255448
1.08683799 1.67638396  93.47170556 -535.771821449887
0.96969205 1.57793758  80.32992127 -535.756748068840
1.00614146 1.73400790  80.37139053 -535.771355579811
0.94048011 1.67744806  69.14602232 -535.746645645696
0.80964821 1.68633376 105.07118868 -535.760732580696
1.37265765 1.67716712  91.97384981 -535.703556540826
1.31043368 1.62647472 103.19863766 -535.720734071557
0.90139235 1.89504392 104.29842223 -535.772806106710
0.97031203 1.98003738  83.77539954 -535.765390906387
0.92542624 1.63311415  56.47082360 -535.690933209521
1.26991130 1.70022746 124.77531488 -535.720552886177
1.04883123 1.92114746 101.57635011 -535.766589812675
0.91138650 1.96412085 112.43433878 -535.762225193119
1.04014817 1.77131402 117.34549562 -535.772550202435
0.98913845 1.71007940  81.11651620 -535.772921496436
1.30098092 1.65361405  92.58659915 -535.721023473694
0.95462404 2.03021302  73.44438379 -535.753860024854
0.80535552 1.68541854 124.20011830 -535.747054832419
0.83924357 1.79178281  99.39266338 -535.768451064601
1.03356372 1.90153617  95.18692071 -535.770957005608
0.98578843 1.52084953  75.68643421 -535.728640697562
1.01905340 1.50471367 119.22106787 -535.762726829907
1.11298098 1.70186857 109.18904172 -535.768559397088
0.95870671 1.75217774 133.16717723 -535.762016205388
1.18984317 1.70849167  99.28153787 -535.752764581963
1.06261360 1.68800521  91.19956290 -535.774724981050
0.99729336 1.94130767 109.49657852 -535.766966502334
1.08092502 2.01356349 104.46021187 -535.751127649283
0.99359483 2.16746636 100.51873817 -535.747447092095
1.31947640 1.49737297 101.00431474 -535.697208229112
1.00335007 2.12255592 104.91160268 -535.749697862985
0.73912297 2.04947144 104.69594424 -535.678376609630
0.96998964 1.75419952 148.69556942 -535.735699670711
0.82386793 1.71571464  77.03850655 -535.744166295727
1.04029045 1.61598773  92.61312772 -535.774503219588
1.52396084 1.72381756 109.23014197 -535.668324791148
0.88110247 2.08410518 102.52346751 -535.749854398411
0.85484967 1.75216917 102.54116610 -535.775662552724
1.05467296 1.63556287 100.69109915 -535.778569242607
0.99677098 1.82584980 113.83982426 -535.775643277748
0.77734731 1.77021533  98.89923450 -535.738871055983
1.12293288 1.71365725  71.94332988 -535.739818097648
1.39377023 1.57495608 101.92224472 -535.695280959307
1.01246152 1.71001512 102.54868898 -535.785616942320
1.04333587 1.62965425 105.76156443 -535.780460545660
1.30119297 1.66138375  90.29225649 -535.719779690792
0.95313926 1.72064964 103.90707915 -535.788743721207
0.92364488 1.81897367  77.26882094 -535.768221477741
1.03781136 1.49983513  99.52391021 -535.757592522550
1.07067775 1.65850585 100.83891150 -535.777058860958
0.95382653 1.54974511 118.62934179 -535.776363830436
0.97758830 1.65784031 143.24281525 -535.750859197620
1.41613850 1.67227733 110.66339861 -535.694533558260
1.26278443 1.78798382 100.01975621 -535.732544537581
1.35619121 1.55174493 102.36863269 -535.700402024891
1.43424420 1.65075931 112.18009177 -535.688052238455
0.88555917 1.89835839 100.28969002 -535.771066277822
1.00009414 1.87859160  95.49765731 -535.776495378710
1.10889032 1.88819440  99.40753691 -535.759940296622
0.93820866 1.70297029 108.15782351 -535.788202965987
0.90467666 1.59586860  87.51889201 -535.770367312432
0.99273996 1.96836238 114.81010442 -535.760765846211
1.00474460 1.69655413  76.52737396 -535.763573052448
1.10611178 1.71951482 104.31354764 -535.770778945426
0.86379985 1.78526920  89.72166368 -535.772759508703
0.91808192 1.97145186 106.84871887 -535.765367759147
0.90983867 1.74079054  84.75205775 -535.777233337394
1.37640211 1.69245575  96.04309999 -535.705320699921
0.99055757 1.87205409  93.41345937 -535.777401197248
0.86522061 1.70604125 102.51662500 -535.780044431646
0.84666401 1.69958412 124.28775416 -535.762829427588
1.30986001 1.66582732  86.80067017 -535.714711965295
0.86740000 1.65174339  81.01385540 -535.760600313603
1.04450437 1.61638891  81.48854164 -535.759511610935
1.26936723 1.90509744 103.19778503 -535.721284371482
0.94834718 1.68903124  93.79915913 -535.786541793082
1.11470641 1.63368807  93.74518563 -535.764283780051
1.24577717 1.67529730 115.91659441 -535.734941793048
1.07645923 2.04077637  99.67246806 -535.750456602331
1.12139841 1.67898236  67.86707946 -535.728511396266
1.12913319 1.54810595  97.82045302 -535.752115490273
1.09751369 1.80581263 101.41860381 -535.768538174419
0.96081235 1.77161760  66.33207488 -535.748508385377
0.90589978 1.90555753 100.66114317 -535.773220541758
1.07922770 1.74028753 103.43139918 -535.775191620230
0.92710484 1.55143903 118.54160245 -535.776327602572
1.41562428 1.65824174  90.30725337 -535.688080359338
0.90586188 1.58192234 109.86747302 -535.781912171877
0.99847886 1.86134569  92.45655613 -535.777418023367
1.07700600 1.75826917 108.70454912 -535.773260294709
0.78416288 1.57079387 110.64929672 -535.740918768578
1.17593194 1.52222408 106.96943468 -535.738302401233
1.13533499 1.79560960  99.25513729 -535.761770301194
1.17941099 1.68646336  99.75305705 -535.755226958233
0.90415428 1.69266507 119.70748127 -535.779229139666
0.90574847 1.45756004  89.58185495 -535.733677575798
1.12099635 1.95060836 103.19679584 -535.750714095798
1.02421632 1.70043884 103.91487227 -535.784387025073
0.93298664 1.84870838 111.02253903 -535.776831222659
0.80780554 1.73587095  89.32984325 -535.753498553014
0.73416889 1.69576459 132.24950962 -535.684879471133
0.97931320 1.50740472  95.22452843 -535.762079171029
1.27047465 1.70392938 105.73632082 -535.733098252835
0.98460899 1.68950995 134.90366251 -535.762185096721
0.86859541 1.84140751  94.97153621 -535.772636474257
0.90131329 1.67324028  90.89162259 -535.781082935874
0.94803122 1.91047667 101.37434409 -535.775144008158
1.05585412 2.08563075 100.15071161 -535.748926137689
1.28737342 1.51351749 100.40751499 -535.706805951401
1.02413891 1.96276488  98.16915430 -535.766120933852
0.94845133 1.63080268 136.65745596 -535.762349828286
0.93541979 1.86765289 110.51743065 -535.775383626789
1.19197304 1.68618516  79.70442843 -535.736256215689
1.06241630 1.74421703  92.16870131 -535.775568583200
1.29999882 1.67636451  69.83704712 -535.695487806127
1.01493054 1.44959558 112.39406385 -535.746868074646
1.02958526 1.73490583 110.52144478 -535.780750169634
0.95999745 1.64945861  78.60385682 -535.765144904146
0.89529676 1.73833940 134.50465628 -535.757670803095
1.19204170 1.57937370 103.84463920 -535.745750138086
0.92593426 1.68462993 103.76583653 -535.788740290129
0.86465455 1.72631055 117.89086421 -535.772474871054
1.32810683 1.72114595 109.63816758 -535.717050087800
1.30769179 1.64778973 111.45832707 -535.721418062847
1.06448648 2.10500517 104.22667274 -535.744402800689
1.12852273 1.70974766 114.76357693 -535.762213205758
1.48936723 1.66769789  89.12128710 -535.671268057889
0.92835363 1.95880389 115.86908734 -535.761509666971
1.04724182 1.72810741 112.23596691 -535.777745881176
0.75747066 1.71448532  87.06487806 -535.718890919958
1.03519248 1.74233728  79.35487187 -535.767059806526
1.05864691 1.68555895 133.20957096 -535.756111768489
0.95120069 1.64011176  95.59594693 -535.785690068902
0.98174630 1.44665614  79.98045054 -535.707346902730
0.90189680 1.60677415  88.68662220 -535.773195093093
0.75052622 1.67590872 135.80428919 -535.696243085299
1.07156675 1.45656259  96.58371383 -535.730951455948
0.98107898 2.10552392  92.62179324 -535.755277318199
0.92535569 1.67887269  99.93898819 -535.788293586417
0.89545283 1.67271201  97.39401087 -535.784532216707
0.94849397 1.89386507  93.07238454 -535.776741941883
0.80689946 1.72111289 122.56274860 -535.747672921843
0.89956691 1.79377331  97.28772649 -535.781965632849
0.97837102 1.83506370 118.02520959 -535.772508971028
1.14188729 1.61036218 109.56987303 -535.760347158640
1.28210585 1.70220353  63.81499079 -535.693307364402
1.04648286 1.76961239 110.16180596 -535.776721484290
0.96713268 1.44813454  65.27509263 -535.655840728343
0.87862283 1.71845045 127.51745716 -535.765874020327
1.33969078 1.69001283 115.13734137 -535.711799881170
0.99140010 1.80797783  96.15497548 -535.782622722142
1.23480592 2.14044054 101.55201694 -535.706637422199
1.09150627 1.70968791  86.50364623 -535.766277307150
1.15207415 1.67092273 129.41957056 -535.743536862610
1.08389670 1.80402478 103.75187565 -535.770748052750
0.96708064 1.85847593 132.39743525 -535.753439583684
1.14112362 1.62927644  96.84759129 -535.760343377427
0.69999490 1.45417174 102.54219600 -535.631182900222
0.93384712 1.99107130  92.68587491 -535.767001101002
0.89851766 1.64823361  76.98068194 -535.758033493214
1.30271325 1.70449290  93.28363049 -535.723037214878
1.21482782 1.68915021  89.03152815 -535.741518942206
0.79268689 1.67810930 124.93330839 -535.739755440921
0.85963116 1.85646416 109.97092922 -535.766082582273
0.91015491 1.64715501 107.70842368 -535.786789829656
0.99795273 1.67153806  80.86755982 -535.769631542664
1.01124501 1.76185123 108.02668911 -535.782515136814
0.86315775 1.66249484 114.92466550 -535.776403278126
0.96096368 1.55414159  70.82666533 -535.725812992278
0.97812171 1.50308915 102.67234299 -535.766898259105
1.05400770 1.62962115 109.84119612 -535.778152718308
0.84038665 2.03975430 100.62425719 -535.744254339491
0.95305991 1.85633589  58.78720087 -535.733421801756
0.90972047 1.83434612 100.22536319 -535.780278946080
1.41240949 1.67955482  95.55449798 -535.695291611492
0.94692881 1.68454071  88.17047437 -535.781802755315
1.00983814 1.82371393 104.02282142 -535.779592505193
0.92568308 1.67618685 115.77783895 -535.784461153509
1.07307083 1.66893732  73.05384757 -535.746189046076
1.04358650 1.59916211 122.82465425 -535.770051368306
0.88986281 2.02350902  97.36417126 -535.759092500729
1.26724159 1.71205028  97.45507114 -535.733579155527
0.80415922 1.61361838 117.15663655 -535.752740160402
0.92233957 1.89617203  89.92571181 -535.774550739204
0.89747288 1.59364721 106.29126180 -535.782395962731
0.97560309 1.67410683 103.02305509 -535.788659026735
1.13656446 1.54710417 105.04967222 -535.753492778894
0.93017460 1.53785251  97.20306202 -535.772543876012
1.04705351 1.77593313 109.12002039 -535.776739515563
1.12762044 1.68705892  64.32688793 -535.720404248546
0.99823640 1.66103102  88.58726035 -535.779065260335
0.76732554 1.71240625 109.20522473 -535.733457530104
0.86753336 1.72317481 140.79948481 -535.744053713221
0.95428301 1.91696747  59.79511063 -535.737203885942
1.18980229 1.68791702  97.51630564 -535.752273785214
0.99724338 1.84592174 110.94262611 -535.775720622527
1.13564665 1.51802156  98.23817550 -535.743120280612
1.06615723 1.71169718  95.09122171 -535.776759139141
0.95927211 2.02355988 109.92762643 -535.759527876822
0.93563295 1.78088553 105.89319454 -535.785028944551
0.95310614 1.51445967 120.10642616 -535.769322891710
1.20510428 1.69450102 114.50320383 -535.745546603684
0.84765273 1.69453851 117.57202196 -535.769652995852
1.23260765 1.77819447  99.21096763 -535.740454243665
0.92212326 1.95048795 106.82936624 -535.767970714478
0.95733237 1.62219204 106.99559888 -535.787472808608
1.00205758 1.70248221  81.12162225 -535.771663526631
1.03645879 1.66085358  95.11501754 -535.780173466565
1.28091156 1.73084199 100.40721501 -535.730363557490
0.84328851 1.64137065  90.04263834 -535.765839562612
1.05668725 1.67671237  90.57292915 -535.774758075138
0.86557499 1.79023416  89.32822487 -535.772718689772
0.83609984 1.67052749 143.16860285 -535.734852016130
0.92887386 1.75828119  77.54039351 -535.769213500198
1.00104124 1.76191771  97.53579963 -535.784621423370
0.93887063 2.21532063  90.42137222 -535.745055347408
1.05987787 1.60888408  90.54012840 -535.768784718130
0.86233506 1.71176498  90.83532571 -535.774745335602
1.00134864 1.64567908  84.68884808 -535.772821422259
0.90267636 1.60744010 107.84627030 -535.784108472156
0.92038147 1.76006740 125.98635155 -535.770101311984
1.03979965 1.73708325 141.56484822 -535.743079189540
0.94926897 1.61163813 107.11630154 -535.786870603435
0.96782856 1.87665668 106.44608269 -535.776709963767
0.92595267 1.75155615 119.66158540 -535.777909955430
0.96125298 1.62224943 132.62327922 -535.767614481211
0.82991450 1.47697821 108.65480370 -535.743374742471
1.01808249 1.58689435  93.73913477 -535.774622643919
0.84202217 1.75143041 114.37094936 -535.767179807024
0.99548740 1.90344786 103.32454117 -535.773753163067
1.08357988 2.00322890  99.41289558 -535.753201001537
1.00156095 1.47549842  89.69200331 -535.741138939130
1.22224975 1.78421393 104.27905013 -535.742162071446
0.92749029 1.80059714 101.43409290 -535.784167934051
1.14342709 1.73996564 112.16941839 -535.759477585367
0.99288944 1.70528249  68.75882354 -535.748597395119
0.97375476 1.51748673  85.10527352 -535.750209536041
1.01149709 1.70250367 112.40072834 -535.783074416658
0.96089279 1.59343043  87.32128861 -535.772093932319
0.99711198 1.84301472  92.45328016 -535.778876113325
1.03194095 2.13153988 104.29422698 -535.746173159146
1.02141466 1.65156344  66.90661102 -535.734781222426
1.04798835 2.04598625  97.83943385 -535.754578637864
0.91963648 1.76561305  61.37591490 -535.732726072559
0.92948600 1.71171811 124.28738801 -535.775739710510
0.85810910 1.59566447  90.07646499 -535.765223785828
0.75621858 1.77800767 112.51697167 -535.718842043103
1.02740796 1.73119307  82.02877855 -535.771335546009
0.95520143 2.04735694  85.71423793 -535.760358996883
1.12059629 1.80123338  95.70804694 -535.764070196758
0.84425571 1.70043093 136.52565106 -535.746063252018
1.16028834 1.49191956 104.97540862 -535.731023688217
0.88293634 1.78206704 102.69228398 -535.780243978611
0.92043884 1.80116755 107.51564374 -535.782143058992
0.99912757 1.65472462  84.44802107 -535.773487565608
0.76859598 1.61253969  92.44522823 -535.727697725957
0.94475444 1.45840879  90.50826275 -535.737765119013
0.93439245 2.02367009 108.55452642 -535.759852035194
0.94687427 1.65361114 134.12646303 -535.765739877156
1.45055804 1.65285783 102.77162493 -535.686358452563
0.95516933 1.60686342  88.74794523 -535.776039123847
0.93445332 1.99618367  93.41135312 -535.766577615315
0.98738493 2.04922147  89.75148401 -535.760277497749
1.12928484 2.02913497 103.99141221 -535.740651484198
0.80738407 1.68811028  96.88285127 -535.758255056892
0.86650567 1.68110787 144.02236185 -535.741474952273
1.01251130 1.53981315  95.15002118 -535.767796585763
0.99089573 1.50685946  96.30044329 -535.762246819585
1.03667496 1.84048985 109.91673532 -535.772656394653
0.97265039 2.00778318  86.87252892 -535.764198596797
0.93654084 1.74557316  64.08643118 -535.740071053052
1.01521330 1.62083154  94.29863291 -535.779468207364
0.89179795 1.63222109  96.49779928 -535.781730875611
0.93938494 1.60445584  91.77122579 -535.779078565046
0.79648662 1.70872025  77.09005074 -535.730557893140
0.98250409 1.83618445  91.76755612 -535.780069524795
1.16042487 1.69014057 132.78879050 -535.736670621847
0.99124897 1.81986026 120.07940365 -535.771181475162
1.04632750 1.95825804 104.34373686 -535.762313702401
0.90833747 1.70392837  72.76805069 -535.755836605407
1.23721487 2.08063180 103.67812966 -535.711308205096
0.75370879 1.82089452 105.89413246 -535.716169434370
1.24096252 1.89813062 101.53644322 -535.729280175203
0.95951305 1.96095196 130.75526996 -535.745774019210
0.94718104 1.48834750 119.16809272 -535.763617127752
1.11782751 1.57392506  99.19177505 -535.760103932129
1.01243197 1.60514683 119.00960840 -535.777624913214
0.96844723 1.91856789 105.98719046 -535.772651859524
0.97563048 1.55052712 105.10743185 -535.778716254734
0.87193548 1.70067140 115.89718127 -535.776888639722
1.12692428 1.48220486  99.88655221 -535.732630216707
0.86426918 1.71098924  98.53255668 -535.779179867417
1.10745522 1.67329162 145.38325104 -535.728381074824
1.34258474 1.69786060 105.24302365 -535.715024143246
0.97206722 1.63360213  79.97054244 -535.765516421493
1.03768185 1.58354159 112.05288654 -535.776513677715
0.83316888 1.70105598  98.91040378 -535.769999396042
0.76778044 1.75945315  91.63534982 -535.730027964785
0.94911604 1.68979777  95.35325055 -535.787422363152
0.92837346 1.69343868 118.56477504 -535.782052078907
1.09724789 1.70707638 110.43418864 -535.770978033644
0.96086210 1.73577325 115.13084019 -535.783224343674
0.89475255 1.54305376 112.67346947 -535.774848110520
0.86361688 1.54115110 100.64283135 -535.766982304582
0.87327310 1.78068999 101.76230305 -535.778541901847
1.40022706 1.61305399 102.08002080 -535.695913112279
1.19329623 1.66119947  95.40813537 -535.749782899657
0.88981481 1.97651931 104.24837303 -535.762464578404
0.94633311 1.86682200 125.95387098 -535.761400001097
1.08353315 1.72694384  98.63725956 -535.774703076093
0.96412112 1.54136775  99.91471877 -535.775366604725
0.99645460 1.53497974 132.38078046 -535.759162784699
0.98519046 1.82639116 105.96655248 -535.780725087861
1.01098130 1.48848636 109.97698076 -535.761725322815
1.36083098 1.66800529 115.66707431 -535.706066236179
1.03438997 1.49445834  98.55718803 -535.755548073535
0.97656742 1.93358194 109.04372387 -535.769271941511
0.97586149 1.61752531  83.69775863 -535.769689284435
1.05172868 1.65922769 136.17950280 -535.753565726140
0.90888651 1.71421445 115.22074410 -535.782428274204
1.01702538 1.62221680 109.99910985 -535.782757690620
1.00834451 1.74334698  72.62296670 -535.758697351873
0.95014138 1.87754367  84.27604180 -535.773875267756
0.95247282 2.09109028  88.01636030 -535.756793763135
0.85745733 1.71612596 111.10904517 -535.775697438001
1.01030808 1.61027235 119.01615702 -535.778132034225
1.01991737 1.74281773 137.30389122 -535.752175874454
1.03794885 1.78647572  89.35569101 -535.776237070014
0.98607915 1.62834342  74.78051411 -535.753367619768
1.19063719 1.69928395  97.28785680 -535.752118770616
1.08174719 1.76622608 103.61303081 -535.773522542296
0.87840264 1.96660960  99.19154183 -535.762819873022
0.81425840 1.62804372 120.73165695 -535.755363967375
0.95053671 1.75854926 107.95439400 -535.786011179627
1.09418443 1.80406713  96.06364935 -535.769066143935
1.10421226 1.90241337 105.95747511 -535.757795697114
0.95368370 1.54998671 123.94170559 -535.772441508263
1.04088731 1.66636561  66.98985933 -535.735630994698
1.00752244 1.86321613 104.12663188 -535.776363706090
1.01936210 1.69502431 129.70787516 -535.765983837271
1.25223351 1.43643260 104.92088041 -535.693446782280
0.87414807 1.64989680 123.48261937 -535.771972040013
1.03778593 1.74931574 125.08568319 -535.766505211970
1.00557399 1.66146278  81.77466015 -535.769596668752
1.34486789 1.69437019 116.19856195 -535.709721108939
1.03893558 1.93610092 108.86141675 -535.763539119345
0.78962710 1.65111400  87.18717711 -535.738982588988
0.93054255 1.57616086  86.26796383 -535.767081274739
0.96268324 1.97371236 103.23222697 -535.768004803065
0.93882998 1.57881846 113.21769508 -535.782574879428
1.01382579 1.81306362  91.13764784 -535.778758630962
0.86903730 1.61939737  80.63597718 -535.756233110209
0.96147847 1.72660859 118.20721970 -535.781269199834
0.95484987 1.67412137  90.50075266 -535.783619978107
0.98337607 1.75894357 122.93745507 -535.773692685082
0.98562025 1.68528379 115.66810642 -535.783689393837
0.92217796 1.80961703  79.41806778 -535.771146998260
1.09834612 1.65595063 133.50321709 -535.749353594517
0.98348902 1.90223918 139.88169691 -535.736934092754
0.99676470 1.75502944 112.81677914 -535.781788298157
1.01044796 1.85723485 116.45413506 -535.769432568061
0.94957895 1.93084725  87.98538792 -535.771896013524
1.14712175 1.70207765  65.92043689 -535.722500256171
0.95444481 1.73181016 123.61091110 -535.775780662842
1.05582339 1.64797494  92.79737466 -535.775136967130
0.84180883 1.77717558  94.78323717 -535.769297184406
0.87081774 1.87946010  95.41278135 -535.769998887519
1.26627158 1.70633400  96.50464825 -535.733547333595
1.26257017 1.68160836  78.18811858 -535.717272731063
1.08381664 1.67672935 107.74742362 -535.774803785280
1.25598262 2.00100985 102.61896977 -535.715224573452
0.82783487 1.69117426  84.07806980 -535.755991002128
1.12973918 1.64778187  88.25413369 -535.757516428381
1.07643200 1.72510819  77.52015270 -535.757967813864
0.97807789 1.43681750  95.90523899 -535.734155389118
0.92916351 1.57236363  79.53255662 -535.753276090353
0.80662079 1.76684955  92.82926216 -535.754349167569
0.91039250 1.75463941 113.98825351 -535.781167814837
1.08365048 1.71686321  66.25661242 -535.734691580758
1.07061220 1.78625302 114.90974810 -535.768812928021
0.81065883 1.67570574  95.41711152 -535.758947302960
1.45057782 1.71649367 114.97255824 -535.683669687934
0.94812266 1.77356062 132.10804550 -535.761903833092
0.99319787 1.44004176  79.84845906 -535.702641199994
0.83673910 1.70009656 134.04062759 -535.747225514787
0.95730963 1.60564490 109.98627285 -535.785896876820
1.30080015 1.69553024 138.85315640 -535.693814306495
0.87033460 1.69986649  68.65344946 -535.738736386655
0.91334359 1.77303526 134.25813878 -535.757219246782
0.92496778 1.67840062  78.84667450 -535.767500401898
0.98215980 1.57195544 110.72681258 -535.781420838788
1.21033092 1.55421314 104.39153558 -535.736839655920
1.10869969 1.64862353 118.45506412 -535.764188919523
0.95576045 1.71793835 138.19226557 -535.756818662318
1.21297121 1.67528216  61.27047065 -535.698333512198
1.01019936 1.54578355 101.97690423 -535.774050255119
0.97867809 1.67045815  79.55162561 -535.768506225976
0.95202297 2.06571149 124.16986999 -535.743585467596
1.16156923 1.67876139 106.90031690 -535.759095744450
0.97063427 1.94714333 122.18764717 -535.757256636389
1.07450681 1.64603507  77.75181200 -535.752454500003
1.21932826 1.85277968 100.93436026 -535.738547559267
1.28132104 1.59572908 102.52364997 -535.724801948517
0.90323704 1.95461660 102.58318335 -535.767332381254
1.04336462 1.81252784 116.21150207 -535.769834249715
1.04107511 1.81499986 107.04040238 -535.775622296524
1.24174801 1.65306289 103.64738646 -535.739860068815
1.13260713 1.67325680  77.03857762 -535.743732939685
0.96230201 1.87770370 113.62638353 -535.772520923077
1.20307366 1.57422863 105.44095602 -535.742503307784
0.90095136 1.48049310 108.64537793 -535.760817671604
1.00268753 1.78169462  83.41731079 -535.775335491663
0.89036263 1.54733951  89.33038291 -535.761834569246
0.97349982 1.80131471 103.74652550 -535.783945585348
1.05874232 1.74529434 106.32160303 -535.777779940384
1.01756930 1.75932600  70.28530300 -535.754039846990
1.12338486 2.05740067 104.21946461 -535.738817672783
1.11261402 1.71565910 140.04137921 -535.734498299905
1.00049357 1.59904986  91.25471138 -535.775649382820
0.94806331 1.56349701  61.61966106 -535.694100992734
1.02907079 1.61157544 118.24634938 -535.776538109559
1.13731638 1.52795576 100.21922116 -535.747001714287
0.94989347 1.72625264 102.74867185 -535.788661567511
1.13933314 1.69153660 124.66782327 -535.751553514623
0.85823460 1.60978510 119.86867500 -535.770840366423
1.17334575 1.73733686 106.62245091 -535.755388789846
0.75711552 1.48135184 105.47678981 -535.702384530660
1.24011757 1.61601604  99.82191995 -535.737153028884
0.97213815 1.75355079  88.38798026 -535.782272084576
1.11805333 2.05528541 104.64591686 -535.739921344376
1.35090587 1.69955295 103.80581094 -535.713067686816
1.04323152 1.79478265 118.17507831 -535.769617250200
1.01692728 1.85012779 103.73183927 -535.776719201384
0.95012640 1.54857746  99.24558227 -535.776650438553
1.04541467 1.84505911 109.28675926 -535.771409743953
1.39809357 1.61900270 106.63766184 -535.697180748072
0.87573530 1.80346908  90.12244461 -535.774833070077
1.01309775 1.62637589  58.85103771 -535.703034068906
1.05038785 1.46325125 104.19712603 -535.744930293055
1.23627588 1.67959443 100.33975541 -535.741647669526
0.97684044 1.81767522 110.15346266 -535.779990480382
0.95122180 1.80614905 130.42005442 -535.761444171234
0.99151748 1.72228933  72.22436692 -535.757868503827
0.86712302 1.70001289  71.80160027 -535.745994317158
1.01796809 1.51299602  91.46638657 -535.755730900239
1.20387481 1.66332859  97.18034180 -535.748170800647
0.92803476 1.68529528  63.83797115 -535.731404695204
1.46185906 1.69492173  86.61087262 -535.676449848783
0.99077196 1.70652497 131.14321121 -535.766288026008
0.95125988 1.51991065  94.64807209 -535.765966603105
0.92176803 1.62902604 129.37228903 -535.771350433550
1.16401024 1.50700131 102.38604085 -535.733941387891
1.12182608 1.73604544 107.53509724 -535.766318856041
0.93051407 1.74410684 114.37005215 -535.782966079383
0.85330256 2.06087271 107.39236351 -535.743515729946
1.02887979 1.65714723 111.68258896 -535.781820353160
0.97205709 1.93319764  84.77203841 -535.769814454289
0.93438637 1.78625522 105.04110474 -535.784855178695
1.03036949 1.63930403 121.49955649 -535.774627081802
0.85112281 2.01459477 102.35370666 -535.750011483260
1.19475274 1.65654902  87.02457303 -535.742549339701
1.07788934 1.57564190  98.49180848 -535.767663065971
1.15058027 1.98434291 102.63907347 -535.741320151300
0.96919977 1.70141834  78.36203888 -535.769057773163
1.03578315 1.82370230 104.86651327 -535.776395034502
0.87839392 1.64692715 119.95240918 -535.776031354562
0.96197900 1.66817604  59.31920874 -535.714432301538
0.96535550 1.67792788 127.23201230 -535.773844840491
1.00912052 1.56988827 123.23473610 -535.771738539655
1.02352220 1.67107748 117.30544285 -535.779102554287
1.09702068 1.79171406  99.26437778 -535.769617438533
0.94774520 1.51540851 103.51193752 -535.771583841990
1.00156952 1.68641058 115.10042366 -535.782788868348
0.90156023 1.56225429 106.72330482 -535.779151616000
1.00621403 1.89924180 115.16883475 -535.766690335425
1.25568040 1.69884529 102.22505469 -535.737147036194
0.87520534 1.72678821  72.15730718 -535.750779222137
0.80816430 1.86339752  97.23976199 -535.749558247229
0.96590642 1.61031814 122.68036981 -535.778341820851
1.06555695 1.62375960  90.02083775 -535.769046871722
0.94172779 1.57310351  69.89561401 -535.727950150774
0.93767508 2.06542809 116.65891056 -535.750096970861
0.97036439 1.70836115  68.73389515 -535.749550360417
1.26598319 1.69667369 127.92533276 -535.717938904858
0.95459773 2.10261463 130.76523911 -535.733401335216
1.03726535 1.68483918 122.02280332 -535.772949331853
1.03322605 1.66239321 115.65736142 -535.779077030227
0.85640744 2.11845417 106.96146576 -535.738577360084
0.96790543 1.49354950  98.88933876 -535.761891965074
1.04058989 1.70697421  88.78662732 -535.776445424200
1.21623438 1.68240570 106.54687316 -535.746398933298
1.03077745 1.60502861 113.22894313 -535.778840302456
1.15979706 2.08467502 103.49820905 -535.728727175576
0.86503093 1.74701941  85.39570586 -535.770357227675
1.06662633 1.76572651 119.17844071 -535.767335003634
1.03669236 1.69022642 149.27196942 -535.733094888549
1.01014605 1.70743516 132.57183988 -535.762520388291
0.88827056 1.83942852 105.00469860 -535.776051625465
1.07146349 1.53886718 110.04337978 -535.765180404640
1.09919968 1.65812190  96.44679351 -535.770451626132
1.01873550 1.64073491  64.79870221 -535.726798741425
1.05175819 1.73989892 102.55752124 -535.779746080333
1.33641469 1.69089743 120.54367417 -535.708411432754
0.96312918 1.50435894 133.62526071 -535.754668462594
0.81758457 1.63457978 120.35690846 -535.757243007460
1.06592730 1.70882405 123.66219035 -535.766109136331
0.95336085 1.82953145 126.66919387 -535.764228883384
0.88493135 1.72876848 102.44946172 -535.783401437244
0.92882897 1.73696891  95.88660593 -535.786770386172
0.82658256 1.69704544 113.37564374 -535.765080107776
0.95835598 1.55820232  76.83213542 -535.744053159935
0.96464303 1.46822874 139.05401092 -535.739271779607
0.96573790 1.50812517  79.84117320 -535.735620617004
1.42995165 1.84086937 102.24527022 -535.687061205687
1.31741462 1.69365695 102.34344067 -535.721620567574
0.88026357 1.54696351 106.12932309 -535.773569400631
0.88516989 1.70329532 134.37849915 -535.758699769729
0.80457725 1.67340779 100.83519096 -535.758009075097
1.02823422 1.80290475 117.78120708 -535.771257796526
0.92807638 1.70276062  63.74098119 -535.733641698887
0.91731462 1.72290660 104.54637546 -535.787380745242
0.92421046 1.72294737 114.27932887 -535.783856043132
0.88774620 1.76041994  98.22858478 -535.782238849721
0.95339800 2.08886206  83.16092894 -535.755540771492
0.91003988 2.15255720 110.52455003 -535.743662549836
1.00226672 1.63628310  69.68166711 -535.741083075364
0.94357121 1.65575793 112.42395164 -535.787035157042
1.08560294 2.14769572 105.09185078 -535.736432255070
1.12722288 1.69454008 142.97420859 -535.727639639064
0.93771826 1.58390144 106.03254978 -535.784247695833
1.28817198 1.68253108 120.32322755 -535.720838847846
0.98025695 1.57535900 118.08420464 -535.778728190614
1.16245483 1.59630813 107.79079002 -535.754864373431
0.76642123 1.49203948 103.53046656 -535.711845220005
1.17924049 1.73136151 113.52205041 -535.751072228380
0.91224048 1.79204731  91.24510739 -535.781424041309
1.03561808 1.70957665 105.42179411 -535.782588587470
1.00130934 1.57378198 103.53839963 -535.780077063874
0.82731462 1.71960515 118.53278467 -535.760629779335
0.99264340 1.81291184  60.04557409 -535.734493668531
1.03967640 1.67371026 110.08328607 -535.781139136180
1.17313375 1.62045884 102.65919221 -535.754426896054
0.85209995 1.73379500  77.78014544 -535.756252563707
0.77491518 1.66679742 115.53833592 -535.737031673902
1.41981197 1.64503910 104.66043325 -535.692301939229
0.99753629 1.73167685  89.02405675 -535.781503766686
1.01497519 1.77318534 123.77948347 -535.769055376878
1.18258661 1.83571285 101.89175198 -535.748376259216
0.98660063 2.00200523  88.62618151 -535.764661976829
0.89974396 1.88296050  99.63851671 -535.774818782145
0.95875969 1.55645581  96.21179607 -535.775803404562
0.85054132 1.86933097  97.92482268 -535.765771693332
1.03331273 2.17429878  98.26406458 -535.743552120671
0.89778183 1.76132857  86.29112400 -535.777210284455
0.97466221 1.98909634 143.35508534 -535.724264055150
1.04768497 1.74991595 115.58531282 -535.774311858675
1.10686106 1.83314836 101.48451061 -535.764749388442
0.95026985 1.94143386  77.05336832 -535.763399616264
0.89458101 1.53696658 116.02467557 -535.772676255224
0.89767477 1.72557279  75.44982983 -535.761463256658
1.01577693 1.83456671 107.69209112 -535.776769906588
0.81215435 1.68840950  60.15411107 -535.688906319285
0.99115805 1.54826403 121.82178541 -535.772032600908
0.90229959 1.61043370 106.13114525 -535.784376109954
1.06824703 1.65283430  86.21084741 -535.767038682486
0.99808492 1.82327392 115.38290816 -535.774587981265
0.95311224 1.85531480 115.41127328 -535.773454398332
0.93684159 1.58147996 137.29981975 -535.760043136833
1.05899210 1.68376220 111.50085232 -535.777590202260
0.99812362 1.66089609  88.92764693 -535.779419475156
0.98835183 1.80976437 100.30641302 -535.782993248772
1.05453552 1.75243314  86.51885497 -535.772635210203
0.96579691 1.59721361 108.31793437 -535.785294997067
0.93034728 1.81079199 131.98039841 -535.758301072074
0.97215888 1.76486380 132.68100907 -535.761347988861
0.94688230 1.56366899 112.96460962 -535.780973488029
1.05097642 1.60466653 107.98635417 -535.777445777344
0.98462819 1.84080533 123.17376623 -535.766357774544
0.92521319 1.69865078 110.60235505 -535.786870247812
0.73859579 1.81071339 105.99884617 -535.703374183866
0.99062056 1.82760277 127.59449869 -535.761881011641
1.15432535 1.72281017 104.79951274 -535.760564554506
0.96820514 1.91963075 122.40200778 -535.759957095341
0.87791843 1.69935056 126.11895499 -535.768464568749
0.95164432 1.53233255 132.09810965 -535.761689873453
1.02706868 1.56337218 112.08138945 -535.775544057724
0.98301806 1.68005800 139.06782784 -535.756361592966
0.99999862 1.66384072 108.17701155 -535.786278243401
1.11891519 1.77143103  96.23057841 -535.766031658395
0.95132899 1.78438834  86.83994178 -535.780617521776
1.02804741 1.50633645 103.05409966 -535.763087632768
1.04253991 1.92721125  97.39965537 -535.767438296879
1.01666449 1.69364340 115.53116786 -535.780800205860
0.91483501 2.06876663 101.16410927 -535.756718257201
1.00707471 1.90973877  94.32689868 -535.772992161576
1.01102704 1.73251539 128.00465074 -535.767181225331
0.96325634 1.79520044  86.87346532 -535.780163510425
0.90975965 1.66715687 104.24029139 -535.787463080510
0.98708859 1.89452780 123.01331068 -535.761051371754
1.01684244 1.81067377 118.83184292 -535.770933197469
1.25890908 1.62217183 103.23467334 -535.733722378347
0.93975495 1.73778835 146.87817221 -535.740738575281
0.92221831 1.65914049 152.59125876 -535.736019666137
1.35632644 1.73671527  95.75180493 -535.710405722954
0.98214442 1.69171103  74.33398129 -535.760342159439
0.90735935 1.64527547 112.50814649 -535.784937983563
0.64321608 1.68888476 103.00000000 -535.571057731643
0.65075377 1.68888476 103.00000000 -535.586379788590
0.65829146 1.68888476 103.00000000 -535.600830269309
0.66582915 1.68888476 103.00000000 -535.614453282224
0.67336683 1.68888476 103.00000000 -535.627290542164
0.68090452 1.68888476 103.00000000 -535.639381579785
0.68844221 1.68888476 103.00000000 -535.650763769232
0.69597990 1.68888476 103.00000000 -535.661472522436
0.70351759 1.68888476 103.00000000 -535.671541385502
0.71105528 1.68888476 103.00000000 -535.681002147124
0.71859296 1.68888476 103.00000000 -535.689885317620
0.72613065 1.68888476 103.00000000 -535.698218693135
0.73366834 1.68888476 103.00000000 -535.706029756264
0.74120603 1.68888476 103.00000000 -535.713344213465
0.74874372 1.68888476 103.00000000 -535.720186458276
0.75628141 1.68888476 103.00000000 -535.726579644500
0.76381910 1.68888476 103.00000000 -535.732545754439
0.77135678 1.68888476 103.00000000 -535.738105657296
0.77889447 1.68888476 103.00000000 -535.743279197306
0.78643216 1.68888476 103.00000000 -535.748085207323
0.79396985 1.68888476 103.00000000 -535.752541591051
0.80150754 1.68888476 103.00000000 -535.756665367036
0.80904523 1.68888476 103.00000000 -535.760472715054
0.81658291 1.68888476 103.00000000 -535.763979016395
0.82412060 1.68888476 103.00000000 -535.767198913917
0.83165829 1.68888476 103.00000000 -535.770147487389
0.83919598 1.68888476 103.00000000 -535.772835622826
0.84673367 1.68888476 103.00000000 -535.775277120500
0.85427136 1.68888476 103.00000000 -535.777483979058
0.86180905 1.68888476 103.00000000 -535.779467621223
0.86934673 1.68888476 103.00000000 -535.781238921293
0.87688442 1.68888476 103.00000000 -535.782808241940
0.88442211 1.68888476 103.00000000 -535.784185446224
0.89195980 1.68888476 103.00000000 -535.785379932603
0.89949749 1.68888476 103.00000000 -535.786400656045
0.90703518 1.68888476 103.00000000 -535.787256149756
0.91457286 1.68888476 103.00000000 -535.787954545590
0.92211055 1.68888476 103.00000000 -535.788503597365
0.92964824 1.68888476 103.00000000 -535.788910693956
0.93718593 1.68888476 103.00000000 -535.789182881776
0.94472362 1.68888476 103.00000000 -535.789326878408
0.95226131 1.68888476 103.00000000 -535.789349092249
0.95979899 1.68888476 103.00000000 -535.789255633450
0.96733668 1.68888476 103.00000000 -535.789052331045
0.97487437 1.68888476 103.00000000 -535.788744745072
0.98241206 1.68888476 103.00000000 -535.788338180195
0.98994975 1.68888476 103.00000000 -535.787837697657
0.99748744 1.68888476 103.00000000 -535.787248126391
1.00502513 1.68888476 103.00000000 -535.786574074096
1.01256281 1.68888476 103.00000000 -535.785819939562
1.02010050 1.68888476 103.00000000 -535.784989917178
1.02763819 1.68888476 103.00000000 -535.784088013345
1.03517588 1.68888476 103.00000000 -535.783118050000
1.04271357 1.68888476 103.00000000 -535.782083675975
1.05025126 1.68888476 103.00000000 -535.780988373490
1.05778894 1.68888476 103.00000000 -535.779835468207
1.06532663 1.68888476 103.00000000 -535.778628129483
1.07286432 1.68888476 103.00000000 -535.777369387268
1.08040201 1.68888476 103.00000000 -535.776062131684
1.08793970 1.68888476 103.00000000 -535.774709121700
1.09547739 1.68888476 103.00000000 -535.773312989916
1.10301508 1.68888476 103.00000000 -535.771876249700
1.11055276 1.68888476 103.00000000 -535.770401300231
1.11809045 1.68888476 103.00000000 -535.768890426535
1.12562814 1.68888476 103.00000000 -535.767345812773
1.13316583 1.68888476 103.00000000 -535.765769542295
1.14070352 1.68888476 103.00000000 -535.764163601292
1.14824121 1.68888476 103.00000000 -535.762529884533
1.15577889 1.68888476 103.00000000 -535.760870200380
1.16331658 1.68888476 103.00000000 -535.759186266719
1.17085427 1.68888476 103.00000000 -535.757479726227
1.17839196 1.68888476 103.00000000 -535.755752142842
1.18592965 1.68888476 103.00000000 -535.754005004418
1.19346734 1.68888476 103.00000000 -535.752239728821
1.20100503 1.68888476 103.00000000 -535.750457663823
1.20854271 1.68888476 103.00000000 -535.748660928853
1.21608040 1.68888476 103.00000000 -535.746849031451
1.22361809 1.68888476 103.00000000 -535.745024002019
1.23115578 1.68888476 103.00000000 -535.743186937069
1.23869347 1.68888476 103.00000000 -535.741338876542
1.24623116 1.68888476 103.00000000 -535.739480803459
1.25376884 1.68888476 103.00000000 -535.737613650574
1.26130653 1.68888476 103.00000000 -535.735738288364
1.26884422 1.68888476 103.00000000 -535.733855544980
1.27638191 1.68888476 103.00000000 -535.731966194136
1.28391960 1.68888476 103.00000000 -535.730070961868
1.29145729 1.68888476 103.00000000 -535.728170522980
1.29899497 1.68888476 103.00000000 -535.726265508128
1.30653266 1.68888476 103.00000000 -535.724356491444
1.31407035 1.68888476 103.00000000 -535.722444006851
1.32160804 1.68888476 103.00000000 -535.720528537220
1.32914573 1.68888476 103.00000000 -535.718610516457
1.33668342 1.68888476 103.00000000 -535.716690328029
1.34422111 1.68888476 103.00000000 -535.714768304601
1.35175879 1.68888476 103.00000000 -535.712844727634
1.35929648 1.68888476 103.00000000 -535.710919815806
1.36683417 1.68888476 103.00000000 -535.708993735028
1.37437186 1.68888476 103.00000000 -535.707066586890
1.38190955 1.68888476 103.00000000 -535.705138403407
1.38944724 1.68888476 103.00000000 -535.703209140403
1.39698492 1.68888476 103.00000000 -535.701278672546
1.40452261 1.68888476 103.00000000 -535.699346770308
1.41206030 1.68888476 103.00000000 -535.697413099790
1.41959799 1.68888476 103.00000000 -535.695477193003
1.42713568 1.68888476 103.00000000 -535.693538422261
1.43467337 1.68888476 103.00000000 -535.691595962499
1.44221106 1.68888476 103.00000000 -535.689648738360
1.44974874 1.68888476 103.00000000 -535.687695349676
1.45728643 1.68888476 103.00000000 -535.685733946216
1.46482412 1.68888476 103.00000000 -535.683762066658
1.47236181 1.68888476 103.00000000 -535.681776328188
1.47989950 1.68888476 103.00000000 -535.679771879942
1.48743719 1.68888476 103.00000000 -535.677741206009
1.49497487 1.68888476 103.00000000 -535.675670703884
1.50251256 1.68888476 103.00000000 -535.673524750556
1.51005025 1.68888476 103.00000000 -535.673994146375
1.51758794 1.68888476 103.00000000 -535.672744641889
1.52512563 1.68888476 103.00000000 -535.671510758073
1.53266332 1.68888476 103.00000000 -535.670292613062
1.54020101 1.68888476 103.00000000 -535.669090332966
1.54773869 1.68888476 103.00000000 -535.667904049893
1.55527638 1.68888476 103.00000000 -535.666733893094
1.56281407 1.68888476 103.00000000 -535.665579997835
1.57035176 1.68888476 103.00000000 -535.664442497877
1.57788945 1.68888476 103.00000000 -535.663321525291
1.58542714 1.68888476 103.00000000 -535.662217209349
1.59296482 1.68888476 103.00000000 -535.661129676628
1.60050251 1.68888476 103.00000000 -535.660059047378
1.60804020 1.68888476 103.00000000 -535.659005438763
1.61557789 1.68888476 103.00000000 -535.657968961716
1.62311558 1.68888476 103.00000000 -535.656949719908
1.63065327 1.68888476 103.00000000 -535.655947808279
1.63819095 1.68888476 103.00000000 -535.654963314396
1.64572864 1.68888476 103.00000000 -535.653996310607
1.65326633 1.68888476 103.00000000 -535.653046861063
1.66080402 1.68888476 103.00000000 -535.652115013715
1.66834171 1.68888476 103.00000000 -535.651200800270
1.67587940 1.68888476 103.00000000 -535.650304232787
1.68341709 1.68888476 103.00000000 -535.649425301167
1.69095477 1.68888476 103.00000000 -535.648563972074
1.69849246 1.68888476 103.00000000 -535.647720180378
1.70603015 1.68888476 103.00000000 -535.646893832360
1.71356784 1.68888476 103.00000000 -535.646084800094
1.72110553 1.68888476 103.00000000 -535.645292914495
1.72864322 1.68888476 103.00000000 -535.644517971219
1.73618090 1.68888476 103.00000000 -535.643759723213
1.74371859 1.68888476 103.00000000 -535.643017878768
1.75125628 1.68888476 103.00000000 -535.642292109314
1.75879397 1.68888476 103.00000000 -535.641582047425
1.76633166 1.68888476 103.00000000 -535.640887291085
1.77386935 1.68888476 103.00000000 -535.640207411103
1.78140704 1.68888476 103.00000000 -535.639541957287
1.78894472 1.68888476 103.00000000 -535.638890467463
1.79648241 1.68888476 103.00000000 -535.638252472207
1.80402010 1.68888476 103.00000000 -535.637627509352
1.81155779 1.68888476 103.00000000 -535.637015126903
1.81909548 1.68888476 103.00000000 -535.636414892285
1.82663317 1.68888476 103.00000000 -535.635826396022
1.83417085 1.68888476 103.00000000 -535.635249257891
1.84170854 1.68888476 103.00000000 -535.634683124853
1.84924623 1.68888476 103.00000000 -535.634127677283
1.85678392 1.68888476 103.00000000 -535.633582625405
1.86432161 1.68888476 103.00000000 -535.633047708624
1.87185930 1.68888476 103.00000000 -535.632522693318
1.87939698 1.68888476 103.00000000 -535.632007371773
1.88693467 1.68888476 103.00000000 -535.631501554537
1.89447236 1.68888476 103.00000000 -535.631005073757
1.90201005 1.68888476 103.00000000 -535.630517779168
1.90954774 1.68888476 103.00000000 -535.630039529288
1.91708543 1.68888476 103.00000000 -535.629570198173
1.92462312 1.68888476 103.00000000 -535.629109666360
1.93216080 1.68888476 103.00000000 -535.628657822451
1.93969849 1.68888476 103.00000000 -535.628214561084
1.94723618 1.68888476 103.00000000 -535.627779776669
1.95477387 1.68888476 103.00000000 -535.627353369834
1.96231156 1.68888476 103.00000000 -535.626935246913
1.96984925 1.68888476 103.00000000 -535.626525310734
1.97738693 1.68888476 103.00000000 -535.626123463816
1.98492462 1.68888476 103.00000000 -535.625729610487
1.99246231 1.68888476 103.00000000 -535.625343656671
2.00000000 1.68888476 103.00000000 -535.624965505690
0.96446195 1.25000000 103.00000000 -535.577447987671
0.96446195 1.25628141 103.00000000 -535.586434259051
0.96446195 1.26256281 103.00000000 -535.595109022873
0.96446195 1.26884422 103.00000000 -535.603482138791
0.96446195 1.27512563 103.00000000 -535.611562699895
0.96446195 1.28140704 103.00000000 -535.619360648799
0.96446195 1.28768844 103.00000000 -535.626884486686
0.96446195 1.29396985 103.00000000 -535.634142802780
0.96446195 1.30025126 103.00000000 -535.641143849691
0.96446195 1.30653266 103.00000000 -535.647895584252
0.96446195 1.31281407 103.00000000 -535.654405700627
0.96446195 1.31909548 103.00000000 -535.660681566473
0.96446195 1.32537688 103.00000000 -535.666730250511
0.96446195 1.33165829 103.00000000 -535.672558542529
0.96446195 1.33793970 103.00000000 -535.678172871852
0.96446195 1.34422111 103.00000000 -535.683579304831
0.96446195 1.35050251 103.00000000 -535.688783439199
0.96446195 1.35678392 103.00000000 -535.693790256135
0.96446195 1.36306533 103.00000000 -535.698603637414
0.96446195 1.36934673 103.00000000 -535.703225169125
0.96446195 1.37562814 103.00000000 -535.707649523782
0.96446195 1.38190955 103.00000000 -535.711824239073
0.96446195 1.38819095 103.00000000 -535.713300774708
0.96446195 1.39447236 103.00000000 -535.717372342308
0.96446195 1.40075377 103.00000000 -535.721343078668
0.96446195 1.40703518 103.00000000 -535.725231696940
0.96446195 1.41331658 103.00000000 -535.729051137323
0.96446195 1.41959799 103.00000000 -535.732788673364
0.96446195 1.42587940 103.00000000 -535.736390400947
0.96446195 1.43216080 103.00000000 -535.739803633334
0.96446195 1.43844221 103.00000000 -535.743022216851
0.96446195 1.44472362 103.00000000 -535.746063751515
0.96446195 1.45100503 103.00000000 -535.748944922596
0.96446195 1.45728643 103.00000000 -535.751677274881
0.96446195 1.46356784 103.00000000 -535.754268981822
0.96446195 1.46984925 103.00000000 -535.756726565843
0.96446195 1.47613065 103.00000000 -535.759055881642
0.96446195 1.48241206 103.00000000 -535.761262515623
0.96446195 1.48869347 103.00000000 -535.763351846425
0.96446195 1.49497487 103.00000000 -535.765329024291
0.96446195 1.50125628 103.00000000 -535.767198932824
0.96446195 1.50753769 103.00000000 -535.768966145428
0.96446195 1.51381910 103.00000000 -535.770635760302
0.96446195 1.52010050 103.00000000 -535.772210101597
0.96446195 1.52638191 103.00000000 -535.773693747350
0.96446195 1.53266332 103.00000000 -535.775090195284
0.96446195 1.53894472 103.00000000 -535.776402734992
0.96446195 1.54522613 103.00000000 -535.777634481484
0.96446195 1.55150754 103.00000000 -535.778788381424
0.96446195 1.55778894 103.00000000 -535.779867238457
0.96446195 1.56407035 103.00000000 -535.780873731837
0.96446195 1.57035176 103.00000000 -535.781810420257
0.96446195 1.57663317 103.00000000 -535.782679758116
0.96446195 1.58291457 103.00000000 -535.783484101861
0.96446195 1.58919598 103.00000000 -535.784225722589
0.96446195 1.59547739 103.00000000 -535.784906804122
0.96446195 1.60175879 103.00000000 -535.785529454082
0.96446195 1.60804020 103.00000000 -535.786095709869
0.96446195 1.61432161 103.00000000 -535.786607536801
0.96446195 1.62060302 103.00000000 -535.787066836840
0.96446195 1.62688442 103.00000000 -535.787475449153
0.96446195 1.63316583 103.00000000 -535.787835155805
0.96446195 1.63944724 103.00000000 -535.788147680491
0.96446195 1.64572864 103.00000000 -535.788414693197
0.96446195 1.65201005 103.00000000 -535.788637813134
0.96446195 1.65829146 103.00000000 -535.788818608718
0.96446195 1.66457286 103.00000000 -535.788958600702
0.96446195 1.67085427 103.00000000 -535.789059264178
0.96446195 1.67713568 103.00000000 -535.789122029446
0.96446195 1.68341709 103.00000000 -535.789148283815
0.96446195 1.68969849 103.00000000 -535.789139374032
0.96446195 1.69597990 103.00000000 -535.789096606884
0.96446195 1.70226131 103.00000000 -535.789021250037
0.96446195 1.70854271 103.00000000 -535.788914534948
0.96446195 1.71482412 103.00000000 -535.788777657010
0.96446195 1.72110553 103.00000000 -535.788611776113
0.96446195 1.72738693 103.00000000 -535.788418020038
0.96446195 1.73366834 103.00000000 -535.788197482758
0.96446195 1.73994975 103.00000000 -535.787951228046
0.96446195 1.74623116 103.00000000 -535.787680287899
0.96446195 1.75251256 103.00000000 -535.787385666612
0.96446195 1.75879397 103.00000000 -535.787068337796
0.96446195 1.76507538 103.00000000 -535.786729248898
0.96446195 1.77135678 103.00000000 -535.786369320641
0.96446195 1.77763819 103.00000000 -535.785989445707
0.96446195 1.78391960 103.00000000 -535.785590493367
0.96446195 1.79020101 103.00000000 -535.785173307753
0.96446195 1.79648241 103.00000000 -535.784738709793
0.96446195 1.80276382 103.00000000 -535.784287494835
0.96446195 1.80904523 103.00000000 -535.783820437819
0.96446195 1.81532663 103.00000000 -535.783338291968
0.96446195 1.82160804 103.00000000 -535.782841787301
0.96446195 1.82788945 103.00000000 -535.782331633882
0.96446195 1.83417085 103.00000000 -535.781808523206
0.96446195 1.84045226 103.00000000 -535.781273123218
0.96446195 1.84673367 103.00000000 -535.780726085987
0.96446195 1.85301508 103.00000000 -535.780168043132
0.96446195 1.85929648 103.00000000 -535.779599611904
0.96446195 1.86557789 103.00000000 -535.779021385138
0.96446195 1.87185930 103.00000000 -535.778433943909
0.96446195 1.87814070 103.00000000 -535.777837850759
0.96446195 1.88442211 103.00000000 -535.777233650571
0.96446195 1.89070352 103.00000000 -535.776621873120
0.96446195 1.89698492 103.00000000 -535.776003034634
0.96446195 1.90326633 103.00000000 -535.775377632046
0.96446195 1.90954774 103.00000000 -535.774746150383
0.96446195 1.91582915 103.00000000 -535.774109060489
0.96446195 1.92211055 103.00000000 -535.773466818439
0.96446195 1.92839196 103.00000000 -535.772819864578
0.96446195 1.93467337 103.00000000 -535.772168628517
0.96446195 1.94095477 103.00000000 -535.771513527272
0.96446195 1.94723618 103.00000000 -535.770854961269
0.96446195 1.95351759 103.00000000 -535.770193322340
0.96446195 1.95979899 103.00000000 -535.769528989501
0.96446195 1.96608040 103.00000000 -535.768862327551
0.96446195 1.97236181 103.00000000 -535.768193691940
0.96446195 1.97864322 103.00000000 -535.767523426510
0.96446195 1.98492462 103.00000000 -535.766851864278
0.96446195 1.99120603 103.00000000 -535.766179326044
0.96446195 1.99748744 103.00000000 -535.765506123125
0.96446195 2.00376884 103.00000000 -535.764832558808
0.96446195 2.01005025 103.00000000 -535.764158920947
0.96446195 2.01633166 103.00000000 -535.763485492198
0.96446195 2.02261307 103.00000000 -535.762812544147
0.96446195 2.02889447 103.00000000 -535.762140339985
0.96446195 2.03517588 103.00000000 -535.761469130708
0.96446195 2.04145729 103.00000000 -535.760799161823
0.96446195 2.04773869 103.00000000 -535.760130669712
0.96446195 2.05402010 103.00000000 -535.759463879450
0.96446195 2.06030151 103.00000000 -535.758799010649
0.96446195 2.06658291 103.00000000 -535.758136274541
0.96446195 2.07286432 103.00000000 -535.757475872300
0.96446195 2.07914573 103.00000000 -535.756817998961
0.96446195 2.08542714 103.00000000 -535.756162842407
0.96446195 2.09170854 103.00000000 -535.755510583098
0.96446195 2.09798995 103.00000000 -535.754861391777
0.96446195 2.10427136 103.00000000 -535.754215434781
0.96446195 2.11055276 103.00000000 -535.753572872008
0.96446195 2.11683417 103.00000000 -535.752933852884
0.96446195 2.12311558 103.00000000 -535.752298523978
0.96446195 2.12939698 103.00000000 -535.751667025370
0.96446195 2.13567839 103.00000000 -535.751039487413
0.96446195 2.14195980 103.00000000 -535.750416038081
0.96446195 2.14824121 103.00000000 -535.749796797405
0.96446195 2.15452261 103.00000000 -535.749181881947
0.96446195 2.16080402 103.00000000 -535.748571398269
0.96446195 2.16708543 103.00000000 -535.747965451888
0.96446195 2.17336683 103.00000000 -535.747364141598
0.96446195 2.17964824 103.00000000 -535.746767558607
0.96446195 2.18592965 103.00000000 -535.746175792485
0.96446195 2.19221106 103.00000000 -535.745588926499
0.96446195 2.19849246 103.00000000 -535.745007039963
0.96446195 2.20477387 103.00000000 -535.744430204596
0.96446195 2.21105528 103.00000000 -535.743858490336
0.96446195 2.21733668 103.00000000 -535.743291962550
0.96446195 2.22361809 103.00000000 -535.742730679922
0.96446195 2.22989950 103.00000000 -535.742174699206
0.96446195 2.23618090 103.00000000 -535.741624072976
0.96446195 2.24246231 103.00000000 -535.741078847602
0.96446195 2.24874372 103.00000000 -535.740539066856
0.96446195 2.25502513 103.00000000 -535.740004770639
0.96446195 2.26130653 103.00000000 -535.739475995758
0.96446195 2.26758794 103.00000000 -535.738952772789
0.96446195 2.27386935 103.00000000 -535.738435129422
0.96446195 2.28015075 103.00000000 -535.737923093922
0.96446195 2.28643216 103.00000000 -535.737416685188
0.96446195 2.29271357 103.00000000 -535.736915921903
0.96446195 2.29899497 103.00000000 -535.736420818960
0.96446195 2.30527638 103.00000000 -535.735931386615
0.96446195 2.31155779 103.00000000 -535.735447634660
0.96446195 2.31783920 103.00000000 -535.734969567380
0.96446195 2.32412060 103.00000000 -535.734497188748
0.96446195 2.33040201 103.00000000 -535.734030497100
0.96446195 2.33668342 103.00000000 -535.733569489075
0.96446195 2.34296482 103.00000000 -535.733114160379
0.96446195 2.34924623 103.00000000 -535.732664501304
0.96446195 2.35552764 103.00000000 -535.732220501640
0.96446195 2.36180905 103.00000000 -535.731782148599
0.96446195 2.36809045 103.00000000 -535.731349427049
0.96446195 2.37437186 103.00000000 -535.730922318644
0.96446195 2.38065327 103.00000000 -535.730500804400
0.96446195 2.38693467 103.00000000 -535.730084862396
0.96446195 2.39321608 103.00000000 -535.729674468711
0.96446195 2.39949749 103.00000000 -535.729269601049
0.96446195 2.40577889 103.00000000 -535.728870225898
0.96446195 2.41206030 103.00000000 -535.728476320760
0.96446195 2.41834171 103.00000000 -535.728087849418
0.96446195 2.42462312 103.00000000 -535.727704786415
0.96446195 2.43090452 103.00000000 -535.727327099661
0.96446195 2.43718593 103.00000000 -535.726954746249
0.96446195 2.44346734 103.00000000 -535.726587693676
0.96446195 2.44974874 103.00000000 -535.726225905515
0.96446195 2.45603015 103.00000000 -535.725869341538
0.96446195 2.46231156 103.00000000 -535.725517963319
0.96446195 2.46859296 103.00000000 -535.725171730169
0.96446195 2.47487437 103.00000000 -535.724830599524
0.96446195 2.48115578 103.00000000 -535.724494529081
0.96446195 2.48743719 103.00000000 -535.724163475525
0.96446195 2.49371859 103.00000000 -535.723837394332
0.96446195 2.50000000 103.00000000 -535.723516239913
0.96446195 1.68888476  40.00000000 -535.607253821556
0.96446195 1.68888476  40.70351759 -535.613573536672
0.96446195 1.68888476  41.40703518 -535.619638599159
0.96446195 1.68888476  42.11055276 -535.625461433566
0.96446195 1.68888476  42.81407035 -535.631054079866
0.96446195 1.68888476  43.51758794 -535.636428170548
0.96446195 1.68888476  44.22110553 -535.641594912605
0.96446195 1.68888476  44.92462312 -535.646565071372
0.96446195 1.68888476  45.62814070 -535.651349703614
0.96446195 1.68888476  46.33165829 -535.655957194680
0.96446195 1.68888476  47.03517588 -535.660397658682
0.96446195 1.68888476  47.73869347 -535.664680023576
0.96446195 1.68888476  48.44221106 -535.668812755196
0.96446195 1.68888476  49.14572864 -535.672803863500
0.96446195 1.68888476  49.84924623 -535.676660908947
0.96446195 1.68888476  50.55276382 -535.680391011927
0.96446195 1.68888476  51.25628141 -535.684000864043
0.96446195 1.68888476  51.95979899 -535.687496741080
0.96446195 1.68888476  52.66331658 -535.690884517649
0.96446195 1.68888476  53.36683417 -535.694169679707
0.96446195 1.68888476  54.07035176 -535.697357343989
0.96446195 1.68888476  54.77386935 -535.700452272411
0.96446195 1.68888476  55.47738693 -535.703458889389
0.96446195 1.68888476  56.18090452 -535.706381299092
0.96446195 1.68888476  56.88442211 -535.709223302549
0.96446195 1.68888476  57.58793970 -535.711988416114
0.96446195 1.68888476  58.29145729 -535.714679884044
0.96446195 1.68888476  58.99497487 -535.717300699963
0.96446195 1.68888476  59.69849246 -535.719853620939
0.96446195 1.68888476  60.40201005 -535.722341183218
0.96446195 1.68888476  61.10552764 -535.724765715522
0.96446195 1.68888476  61.80904523 -535.727129354300
0.96446195 1.68888476  62.51256281 -535.729434060981
0.96446195 1.68888476  63.21608040 -535.731681632137
0.96446195 1.68888476  63.91959799 -535.733873710433
0.96446195 1.68888476  64.62311558 -535.736011800200
0.96446195 1.68888476  65.32663317 -535.738097275926
0.96446195 1.68888476  66.03015075 -535.740131394395
0.96446195 1.68888476  66.73366834 -535.742115307892
0.96446195 1.68888476  67.43718593 -535.744050065128
0.96446195 1.68888476  68.14070352 -535.745936628406
0.96446195 1.68888476  68.84422111 -535.747775878450
0.96446195 1.68888476  69.54773869 -535.749568618738
0.96446195 1.68888476  70.25125628 -535.751315587941
0.96446195 1.68888476  70.95477387 -535.753017472736
0.96446195 1.68888476  71.65829146 -535.754674895523
0.96446195 1.68888476  72.36180905 -535.756288432705
0.96446195 1.68888476  73.06532663 -535.757858618549
0.96446195 1.68888476  73.76884422 -535.759385948768
0.96446195 1.68888476  74.47236181 -535.760870884310
0.96446195 1.68888476  75.17587940 -535.762313856252
0.96446195 1.68888476  75.87939698 -535.763715268583
0.96446195 1.68888476  76.58291457 -535.765075501138
0.96446195 1.68888476  77.28643216 -535.766394916373
0.96446195 1.68888476  77.98994975 -535.767673855465
0.96446195 1.68888476  78.69346734 -535.768912646877
0.96446195 1.68888476  79.39698492 -535.770111604193
0.96446195 1.68888476  80.10050251 -535.771271031469
0.96446195 1.68888476  80.80402010 -535.772391223955
0.96446195 1.68888476  81.50753769 -535.773472467622
0.96446195 1.68888476  82.21105528 -535.774515043185
0.96446195 1.68888476  82.91457286 -535.775519225750
0.96446195 1.68888476  83.61809045 -535.776485286611
0.96446195 1.68888476  84.32160804 -535.777413494669
0.96446195 1.68888476  85.02512563 -535.778304115274
0.96446195 1.68888476  85.72864322 -535.779157413478
0.96446195 1.68888476  86.43216080 -535.779973652156
0.96446195 1.68888476  87.13567839 -535.780753094897
0.96446195 1.68888476  87.83919598 -535.781496004429
0.96446195 1.68888476  88.54271357 -535.782202643754
0.96446195 1.68888476  89.24623116 -535.782873276966
0.96446195 1.68888476  89.94974874 -535.783508168689
0.96446195 1.68888476  90.65326633 -535.784107584547
0.96446195 1.68888476  91.35678392 -535.784671791545
0.96446195 1.68888476  92.06030151 -535.785201057562
0.96446195 1.68888476  92.76381910 -535.785695652888
0.96446195 1.68888476  93.46733668 -535.786155848261
0.96446195 1.68888476  94.17085427 -535.786581916677
0.96446195 1.68888476  94.87437186 -535.786974131963
0.96446195 1.68888476  95.57788945 -535.787332770802
0.96446195 1.68888476  96.28140704 -535.787658110511
0.96446195 1.68888476  96.98492462 -535.787950430399
0.96446195 1.68888476  97.68844221 -535.788210011542
0.96446195 1.68888476  98.39195980 -535.788437136348
0.96446195 1.68888476  99.09547739 -535.788632088994
0.96446195 1.68888476  99.79899497 -535.788795155197
0.96446195 1.68888476 100.50251256 -535.788926622926
0.96446195 1.68888476 101.20603015 -535.789026780720
0.96446195 1.68888476 101.90954774 -535.789095918987
0.96446195 1.68888476 102.61306533 -535.789134329927
0.96446195 1.68888476 103.31658291 -535.789142307043
0.96446195 1.68888476 104.02010050 -535.789120145122
0.96446195 1.68888476 104.72361809 -535.789068140837
0.96446195 1.68888476 105.42713568 -535.788986591973
0.96446195 1.68888476 106.13065327 -535.788875797919
0.96446195 1.68888476 106.83417085 -535.788736059784
0.96446195 1.68888476 107.53768844 -535.788567679010
0.96446195 1.68888476 108.24120603 -535.788370960295
0.96446195 1.68888476 108.94472362 -535.788146208521
0.96446195 1.68888476 109.64824121 -535.787893730632
0.96446195 1.68888476 110.35175879 -535.787613834797
0.96446195 1.68888476 111.05527638 -535.787306831623
0.96446195 1.68888476 111.75879397 -535.786973032194
0.96446195 1.68888476 112.46231156 -535.786612750255
0.96446195 1.68888476 113.16582915 -535.786226301379
0.96446195 1.68888476 113.86934673 -535.785814002839
0.96446195 1.68888476 114.57286432 -535.785376173964
0.96446195 1.68888476 115.27638191 -535.784913136178
0.96446195 1.68888476 115.97989950 -535.784425212925
0.96446195 1.68888476 116.68341709 -535.783912730465
0.96446195 1.68888476 117.38693467 -535.783376017663
0.96446195 1.68888476 118.09045226 -535.782815404759
0.96446195 1.68888476 118.79396985 -535.782231227208
0.96446195 1.68888476 119.49748744 -535.781623821438
0.96446195 1.68888476 120.20100503 -535.780993527628
0.96446195 1.68888476 120.90452261 -535.780340689148
0.96446195 1.68888476 121.60804020 -535.779665653296
0.96446195 1.68888476 122.31155779 -535.778968770832
0.96446195 1.68888476 123.01507538 -535.778250395846
0.96446195 1.68888476 123.71859296 -535.777510887897
0.96446195 1.68888476 124.42211055 -535.776750609480
0.96446195 1.68888476 125.12562814 -535.775969928732
0.96446195 1.68888476 125.82914573 -535.775169218197
0.96446195 1.68888476 126.53266332 -535.774348854972
0.96446195 1.68888476 127.23618090 -535.773509222608
0.96446195 1.68888476 127.93969849 -535.772650709373
0.96446195 1.68888476 128.64321608 -535.771773709646
0.96446195 1.68888476 129.34673367 -535.770878623335
0.96446195 1.68888476 130.05025126 -535.769965857490
0.96446195 1.68888476 130.75376884 -535.769035825585
0.96446195 1.68888476 131.45728643 -535.768088948123
0.96446195 1.68888476 132.16080402 -535.767125652297
0.96446195 1.68888476 132.86432161 -535.766146373661
0.96446195 1.68888476 133.56783920 -535.765151554836
0.96446195 1.68888476 134.27135678 -535.764141647316
0.96446195 1.68888476 134.97487437 -535.763117110560
0.96446195 1.68888476 135.67839196 -535.762078413066
0.96446195 1.68888476 136.38190955 -535.761026032490
0.96446195 1.68888476 137.08542714 -535.759960456152
0.96446195 1.68888476 137.78894472 -535.758882180225
0.96446195 1.68888476 138.49246231 -535.757791712913
0.96446195 1.68888476 139.19597990 -535.756689570723
0.96446195 1.68888476 139.89949749 -535.755576282488
0.96446195 1.68888476 140.60301508 -535.754452387749
0.96446195 1.68888476 141.30653266 -535.753318437268
0.96446195 1.68888476 142.01005025 -535.752174993579
0.96446195 1.68888476 142.71356784 -535.751022631978
0.96446195 1.68888476 143.41708543 -535.749861939295
0.96446195 1.68888476 144.12060302 -535.748693515535
0.96446195 1.68888476 144.82412060 -535.747517973968
0.96446195 1.68888476 145.52763819 -535.746335940865
0.96446195 1.68888476 146.23115578 -535.745148056975
0.96446195 1.68888476 146.93467337 -535.743954976090
0.96446195 1.68888476 147.63819095 -535.742757367780
0.96446195 1.68888476 148.34170854 -535.741555916552
0.96446195 1.68888476 149.04522613 -535.740351322879
0.96446195 1.68888476 149.74874372 -535.739144304025
0.96446195 1.68888476 150.45226131 -535.737935596615
0.96446195 1.68888476 151.15577889 -535.736725955736
0.96446195 1.68888476 151.85929648 -535.735516159421
0.96446195 1.68888476 152.56281407 -535.734307011039
0.96446195 1.68888476 153.26633166 -535.733099341910
0.96446195 1.68888476 153.96984925 -535.731894017635
0.96446195 1.68888476 154.67336683 -535.730691942505
0.96446195 1.68888476 155.37688442 -535.729494068020
0.96446195 1.68888476 156.08040201 -535.728301401698
0.96446195 1.68888476 156.78391960 -535.727115016518
0.96446195 1.68888476 157.48743719 -535.725936064541
0.96446195 1.68888476 158.19095477 -535.724765787427
0.96446195 1.68888476 158.89447236 -535.723605531200
0.96446195 1.68888476 159.59798995 -535.722456756608
0.96446195 1.68888476 160.30150754 -535.721321049583
0.96446195 1.68888476 161.00502513 -535.720200125896
0.96446195 1.68888476 161.70854271 -535.719095831216
0.96446195 1.68888476 162.41206030 -535.718010132186
0.96446195 1.68888476 163.11557789 -535.716945102657
0.96446195 1.68888476 163.81909548 -535.715902898882
0.96446195 1.68888476 164.52261307 -535.714885733878
0.96446195 1.68888476 165.22613065 -535.713895844032
0.96446195 1.68888476 165.92964824 -535.712935458630
0.96446195 1.68888476 166.63316583 -535.712006772198
0.96446195 1.68888476 167.33668342 -535.711111920061
0.96446195 1.68888476 168.04020101 -535.710252960510
0.96446195 1.68888476 168.74371859 -535.709431862825
0.96446195 1.68888476 169.44723618 -535.708650505118
0.96446195 1.68888476 170.15075377 -535.707910666567
0.96446195 1.68888476 170.85427136 -535.707214030475
0.96446195 1.68888476 171.55778894 -535.706562183855
0.96446195 1.68888476 172.26130653 -535.705956617488
0.96446195 1.68888476 172.96482412 -535.705398728580
0.96446195 1.68888476 173.66834171 -535.704889815844
0.96446195 1.68888476 174.37185930 -535.704431078469
0.96446195 1.68888476 175.07537688 -535.704023611447
0.96446195 1.68888476 175.77889447 -535.703668400684
0.96446195 1.68888476 176.48241206 -535.703366316644
0.96446195 1.68888476 177.18592965 -535.703118109309
0.96446195 1.68888476 177.88944724 -535.702924402084
0.96446195 1.68888476 178.59296482 -535.702785684768
0.96446195 1.68888476 179.29648241 -535.702702312017
2.01000000 1.68888476 103.00000000 -535.624475700681
2.02000000 1.68888476 103.00000000 -535.623999229450
2.03000000 1.68888476 103.00000000 -535.623535859590
2.04000000 1.68888476 103.00000000 -535.623085355961
2.05000000 1.68888476 103.00000000 -535.622647483315
2.06000000 1.68888476 103.00000000 -535.622222001389
2.07000000 1.68888476 103.00000000 -535.621808667487
2.08000000 1.68888476 103.00000000 -535.621407238380
2.09000000 1.68888476 103.00000000 -535.621017468081
2.10000000 1.68888476 103.00000000 -535.620639110153
2.11000000 1.68888476 103.00000000 -535.620271917311
2.12000000 1.68888476 103.00000000 -535.619915641227
2.13000000 1.68888476 103.00000000 -535.619570035721
2.14000000 1.68888476 103.00000000 -535.619234853139
2.15000000 1.68888476 103.00000000 -535.618909847102
2.16000000 1.68888476 103.00000000 -535.618594772942
2.17000000 1.68888476 103.00000000 -535.618289386758
2.18000000 1.68888476 103.00000000 -535.617993446546
2.19000000 1.68888476 103.00000000 -535.617706713190
2.20000000 1.68888476 103.00000000 -535.617428949307
2.21000000 1.68888476 103.00000000 -535.617159920052
2.22000000 1.68888476 103.00000000 -535.616899393978
2.23000000 1.68888476 103.00000000 -535.616647142611
2.24000000 1.68888476 103.00000000 -535.616402940389
2.25000000 1.68888476 103.00000000 -535.616166564670
2.26000000 1.68888476 103.00000000 -535.615937797436
2.27000000 1.68888476 103.00000000 -535.615716423718
2.28000000 1.68888476 103.00000000 -535.615502232147
2.29000000 1.68888476 103.00000000 -535.615295016344
2.30000000 1.68888476 103.00000000 -535.615094573149
2.31000000 1.68888476 103.00000000 -535.614900703373
2.32000000 1.68888476 103.00000000 -535.614713208881
2.33000000 1.68888476 103.00000000 -535.614531903382
2.34000000 1.68888476 103.00000000 -535.614356598467
2.35000000 1.68888476 103.00000000 -535.614187111427
2.36000000 1.68888476 103.00000000 -535.614023263712
2.37000000 1.68888476 103.00000000 -535.613864880280
2.38000000 1.68888476 103.00000000 -535.613711795487
2.39000000 1.68888476 103.00000000 -535.613563839026
2.40000000 1.68888476 103.00000000 -535.613420851168
2.41000000 1.68888476 103.00000000 -535.613282674042
2.42000000 1.68888476 103.00000000 -535.613149154974
2.43000000 1.68888476 103.00000000 -535.613020143985
2.44000000 1.68888476 103.00000000 -535.612895497089
2.45000000 1.68888476 103.00000000 -535.612775072722
2.46000000 1.68888476 103.00000000 -535.612658731955
2.47000000 1.68888476 103.00000000 -535.612546343657
2.48000000 1.68888476 103.00000000 -535.612437777093
2.49000000 1.68888476 103.00000000 -535.612332906610
2.50000000 1.68888476 103.00000000 -535.612231609990
2.51000000 1.68888476 103.00000000 -535.612133768008
2.53020408 1.68888476 103.00000000 -535.611946162554
2.55040816 1.68888476 103.00000000 -535.611771286197
2.57061224 1.68888476 103.00000000 -535.611608287500
2.59081633 1.68888476 103.00000000 -535.611456368164
2.61102041 1.68888476 103.00000000 -535.611314775814
2.63122449 1.68888476 103.00000000 -535.611182809960
2.65142857 1.68888476 103.00000000 -535.611059813577
2.67163265 1.68888476 103.00000000 -535.610945172094
2.69183673 1.68888476 103.00000000 -535.610838305104
2.71204082 1.68888476 103.00000000 -535.610738692405
2.73224490 1.68888476 103.00000000 -535.610645812001
2.75244898 1.68888476 103.00000000 -535.610559212771
2.77265306 1.68888476 103.00000000 -535.610478452982
2.79285714 1.68888476 103.00000000 -535.610403126529
2.81306122 1.68888476 103.00000000 -535.610332855568
2.83326531 1.68888476 103.00000000 -535.610267288498
2.85346939 1.68888476 103.00000000 -535.610206095262
2.87367347 1.68888476 103.00000000 -535.610148999958
2.89387755 1.68888476 103.00000000 -535.610095651844
2.91408163 1.68888476 103.00000000 -535.610045841105
2.93428571 1.68888476 103.00000000 -535.609999301851
2.95448980 1.68888476 103.00000000 -535.609955814049
2.97469388 1.68888476 103.00000000 -535.609915161245
2.99489796 1.68888476 103.00000000 -535.609877148654
3.01510204 1.68888476 103.00000000 -535.609841588298
3.03530612 1.68888476 103.00000000 -535.609808313030
3.05551020 1.68888476 103.00000000 -535.609777162020
3.07571429 1.68888476 103.00000000 -535.609747983628
3.09591837 1.68888476 103.00000000 -535.609720655125
3.11612245 1.68888476 103.00000000 -535.609695039415
3.13632653 1.68888476 103.00000000 -535.609671022070
3.15653061 1.68888476 103.00000000 -535.609648496604
3.17673469 1.68888476 103.00000000 -535.609627351938
3.19693878 1.68888476 103.00000000 -535.609607476884
3.21714286 1.68888476 103.00000000 -535.609588826549
3.23734694 1.68888476 103.00000000 -535.609571299154
3.25755102 1.68888476 103.00000000 -535.609554816128
3.27775510 1.68888476 103.00000000 -535.609539306341
3.29795918 1.68888476 103.00000000 -535.609524708205
3.31816327 1.68888476 103.00000000 -535.609510972950
3.33836735 1.68888476 103.00000000 -535.609498013030
3.35857143 1.68888476 103.00000000 -535.609485792802
3.37877551 1.68888476 103.00000000 -535.609474263124
3.39897959 1.68888476 103.00000000 -535.609463376825
3.41918367 1.68888476 103.00000000 -535.609453102737
3.43938776 1.68888476 103.00000000 -535.609443382731
3.45959184 1.68888476 103.00000000 -535.609434190260
3.47979592 1.68888476 103.00000000 -535.609425493030
3.50000000 1.68888476 103.00000000 -535.609417255624
0.96446195 2.51000000 103.00000000 -535.723015013807
0.96446195 2.52000000 103.00000000 -535.722525968982
0.96446195 2.53000000 103.00000000 -535.722048912564
0.96446195 2.54000000 103.00000000 -535.721583648674
0.96446195 2.55000000 103.00000000 -535.721129976940
0.96446195 2.56000000 103.00000000 -535.720687695476
0.96446195 2.57000000 103.00000000 -535.720256600189
0.96446195 2.58000000 103.00000000 -535.719836486811
0.96446195 2.59000000 103.00000000 -535.719427147269
0.96446195 2.60000000 103.00000000 -535.719028370904
0.96446195 2.61000000 103.00000000 -535.718639951331
0.96446195 2.62000000 103.00000000 -535.718261678546
0.96446195 2.63000000 103.00000000 -535.717893344793
0.96446195 2.64000000 103.00000000 -535.717534741573
0.96446195 2.65000000 103.00000000 -535.717185661196
0.96446195 2.66000000 103.00000000 -535.716845898607
0.96446195 2.67000000 103.00000000 -535.716515247449
0.96446195 2.68000000 103.00000000 -535.716193502067
0.96446195 2.69000000 103.00000000 -535.715880466342
0.96446195 2.70000000 103.00000000 -535.715575938395
0.96446195 2.71000000 103.00000000 -535.715279721166
0.96446195 2.72000000 103.00000000 -535.714991621430
0.96446195 2.73000000 103.00000000 -535.714711445325
0.96446195 2.74000000 103.00000000 -535.714439006928
0.96446195 2.75000000 103.00000000 -535.714174118742
0.96446195 2.76000000 103.00000000 -535.713916595898
0.96446195 2.77000000 103.00000000 -535.713666260378
0.96446195 2.78000000 103.00000000 -535.713422935002
0.96446195 2.79000000 103.00000000 -535.713186443489
0.96446195 2.80000000 103.00000000 -535.712956615822
0.96446195 2.81000000 103.00000000 -535.712733283695
0.96446195 2.82000000 103.00000000 -535.712516281623
0.96446195 2.83000000 103.00000000 -535.712305447618
0.96446195 2.84000000 103.00000000 -535.712100622563
0.96446195 2.85000000 103.00000000 -535.711901650408
0.96446195 2.86000000 103.00000000 -535.711708378046
0.96446195 2.87000000 103.00000000 -535.711520655466
0.96446195 2.88000000 103.00000000 -535.711338336026
0.96446195 2.89000000 103.00000000 -535.711161275094
0.96446195 2.90000000 103.00000000 -535.710989332371
0.96446195 2.91000000 103.00000000 -535.710822369203
0.96446195 2.92000000 103.00000000 -535.710660251045
0.96446195 2.93000000 103.00000000 -535.710502845358
0.96446195 2.94000000 103.00000000 -535.710350019785
0.96446195 2.95000000 103.00000000 -535.710201657924
0.96446195 2.96000000 103.00000000 -535.710057626389
0.96446195 2.97000000 103.00000000 -535.709917807663
0.96446195 2.98000000 103.00000000 -535.709782084315
0.96446195 2.99000000 103.00000000 -535.709650340888
0.96446195 3.00000000 103.00000000 -535.709522465482
0.96446195 3.01000000 103.00000000 -535.709398348032
0.96446195 3.02000000 103.00000000 -535.709277881831
0.96446195 3.03000000 103.00000000 -535.709160962759
0.96446195 3.04000000 103.00000000 -535.709047486987
0.96446195 3.05000000 103.00000000 -535.708937361086
0.96446195 3.06000000 103.00000000 -535.708830482487
0.96446195 3.07000000 103.00000000 -535.708726759391
0.96446195 3.08000000 103.00000000 -535.708626099376
0.96446195 3.09000000 103.00000000 -535.708528413277
0.96446195 3.10000000 103.00000000 -535.708433614089
0.96446195 3.11000000 103.00000000 -535.708341616812
0.96446195 3.12000000 103.00000000 -535.708252343528
0.96446195 3.13000000 103.00000000 -535.708165704790
0.96446195 3.14000000 103.00000000 -535.708081626995
0.96446195 3.15000000 103.00000000 -535.708000033355
0.96446195 3.16000000 103.00000000 -535.707920850564
0.96446195 3.17000000 103.00000000 -535.707844005622
0.96446195 3.18000000 103.00000000 -535.707769427709
0.96446195 3.19000000 103.00000000 -535.707697051166
0.96446195 3.20000000 103.00000000 -535.707626808070
0.96446195 3.21000000 103.00000000 -535.707558627258
0.96446195 3.22000000 103.00000000 -535.707492460008
0.96446195 3.23000000 103.00000000 -535.707428237102
0.96446195 3.24000000 103.00000000 -535.707365900208
0.96446195 3.25000000 103.00000000 -535.707305391412
0.96446195 3.26000000 103.00000000 -535.707246655239
0.96446195 3.27000000 103.00000000 -535.707189636725
0.96446195 3.28000000 103.00000000 -535.707134283586
0.96446195 3.29000000 103.00000000 -535.707080543471
0.96446195 3.30000000 103.00000000 -535.707028367695
0.96446195 3.31000000 103.00000000 -535.706977706424
0.96446195 3.32000000 103.00000000 -535.706928513046
0.96446195 3.33000000 103.00000000 -535.706880741362
0.96446195 3.34000000 103.00000000 -535.706834347678
0.96446195 3.35000000 103.00000000 -535.706789266623
0.96446195 3.36000000 103.00000000 -535.706745503802
0.96446195 3.37000000 103.00000000 -535.706702990997
0.96446195 3.38000000 103.00000000 -535.706661691310
0.96446195 3.39000000 103.00000000 -535.706621565791
0.96446195 3.40000000 103.00000000 -535.706582577789
0.96446195 3.41000000 103.00000000 -535.706544691304
0.96446195 3.42000000 103.00000000 -535.706507871438
0.96446195 3.43000000 103.00000000 -535.706472084736
0.96446195 3.44000000 103.00000000 -535.706437297352
0.96446195 3.45000000 103.00000000 -535.706403477040
0.96446195 3.46000000 103.00000000 -535.706370596209
0.96446195 3.47000000 103.00000000 -535.706338623016
0.96446195 3.48000000 103.00000000 -535.706307528763
0.96446195 3.49000000 103.00000000 -535.706277285214
0.96446195 3.50000000 103.00000000 -535.706247865569
0.96446195 1.68888476 179.40000000 -535.702694729949
0.96446195 1.68888476 179.50000000 -535.702688548189
0.96446195 1.68888476 179.60000000 -535.702683490421
0.96446195 1.68888476 179.70000000 -535.702679556151
0.96446195 1.68888476 179.80000000 -535.702676745856
0.96446195 1.68888476 179.90000000 -535.702675059522
0.96446195 1.68888476 179.99000000 -535.702674502932
0.96446195 1.68888476 179.91000000 -535.702674952605
0.96446195 1.68888476 179.92000000 -535.702674857117
0.96446195 1.68888476 179.93000000 -535.702674772747
0.96446195 1.68888476 179.94000000 -535.702674699693
0.96446195 1.68888476 179.96000000 -535.702674587340
0.96446195 1.68888476 179.97000000 -535.702674547868
0.96446195 1.68888476 179.98000000 -535.702674519840
end