structural
morse    2
rOHe    0   0   0    0          0.96446195
rOCle   0   0   0    0          1.68888476
alphae  0   0   0    0          103.000000
am1     0   0   0    0          2.00000000
am2     0   0   0    0          2.00000000
end

linear
f    0   0   0    1     0.0000000
f    0   0   1    1     0.0000000
f    0   0   2    1     0.0000000
f    0   0   3    1     0.0000000
f    0   0   4    1     0.0000000
f    0   0   5    1     0.0000000
f    0   0   6    1     0.0000000
f    0   0   7    1     0.0000000
f    0   0   8    1     0.0000000
f    0   1   0    1     0.0000000
f    0   2   0    1     0.0000000
f    0   3   0    1     0.0000000
f    0   4   0    1     0.0000000
f    0   5   0    1     0.0000000
f    0   6   0    1     0.0000000
f    0   7   0    1     0.0000000
f    0   8   0    1     0.0000000
f    1   0   0    1     0.0000000
f    2   0   0    1     0.0000000
f    3   0   0    1     0.0000000
f    4   0   0    1     0.0000000
f    5   0   0    1     0.0000000
f    6   0   0    1     0.0000000
f    7   0   0    1     0.0000000
f    8   0   0    1     0.0000000
f    0   1   1    1     0.0000000
f    0   1   2    1     0.0000000
f    0   1   3    1     0.0000000
f    0   1   4    1     0.0000000
f    0   1   5    1     0.0000000
f    0   1   6    1     0.0000000
f    0   1   7    1     0.0000000
f    0   2   1    1     0.0000000
f    0   2   2    1     0.0000000
f    0   2   3    1     0.0000000
f    0   2   4    1     0.0000000
f    0   2   5    1     0.0000000
f    0   2   6    1     0.0000000
f    0   3   1    1     0.0000000
f    0   3   2    1     0.0000000
f    0   3   3    1     0.0000000
f    0   3   4    1     0.0000000
f    0   3   5    1     0.0000000
f    0   4   1    1     0.0000000
f    0   4   2    1     0.0000000
f    0   4   3    1     0.0000000
f    0   4   4    1     0.0000000
f    0   5   1    1     0.0000000
f    0   5   2    1     0.0000000
f    0   5   3    1     0.0000000
f    0   6   1    1     0.0000000
f    0   6   2    1     0.0000000
f    0   7   1    1     0.0000000
f    1   0   1    1     0.0000000
f    1   0   2    1     0.0000000
f    1   0   3    1     0.0000000
f    1   0   4    1     0.0000000
f    1   0   5    1     0.0000000
f    1   0   6    1     0.0000000
f    1   0   7    1     0.0000000
f    1   1   0    1     0.0000000
f    1   2   0    1     0.0000000
f    1   3   0    1     0.0000000
f    1   4   0    1     0.0000000
f    1   5   0    1     0.0000000
f    1   6   0    1     0.0000000
f    1   7   0    1     0.0000000
f    2   0   1    1     0.0000000
f    2   0   2    1     0.0000000
f    2   0   3    1     0.0000000
f    2   0   4    1     0.0000000
f    2   0   5    1     0.0000000
f    2   0   6    1     0.0000000
f    2   1   0    1     0.0000000
f    2   2   0    1     0.0000000
f    2   3   0    1     0.0000000
f    2   4   0    1     0.0000000
f    2   5   0    1     0.0000000
f    2   6   0    1     0.0000000
f    3   0   1    1     0.0000000
f    3   0   2    1     0.0000000
f    3   0   3    1     0.0000000
f    3   0   4    1     0.0000000
f    3   0   5    1     0.0000000
f    3   1   0    1     0.0000000
f    3   2   0    1     0.0000000
f    3   3   0    1     0.0000000
f    3   4   0    1     0.0000000
f    3   5   0    1     0.0000000
f    4   0   1    1     0.0000000
f    4   0   2    1     0.0000000
f    4   0   3    1     0.0000000
f    4   0   4    1     0.0000000
f    4   1   0    1     0.0000000
f    4   2   0    1     0.0000000
f    4   3   0    1     0.0000000
f    4   4   0    1     0.0000000
f    5   0   1    1     0.0000000
f    5   0   2    1     0.0000000
f    5   0   3    1     0.0000000
f    5   1   0    1     0.0000000
f    5   2   0    1     0.0000000
f    5   3   0    1     0.0000000
f    6   0   1    1     0.0000000
f    6   0   2    1     0.0000000
f    6   1   0    1     0.0000000
f    6   2   0    1     0.0000000
f    7   0   1    1     0.0000000
f    7   1   0    1     0.0000000
f    1   1   1    1     0.0000000
f    1   1   2    1     0.0000000
f    1   1   3    1     0.0000000
f    1   1   4    1     0.0000000
f    1   1   5    1     0.0000000
f    1   1   6    1     0.0000000
f    1   2   1    1     0.0000000
f    1   2   2    1     0.0000000
f    1   2   3    1     0.0000000
f    1   2   4    1     0.0000000
f    1   2   5    1     0.0000000
f    1   3   1    1     0.0000000
f    1   3   2    1     0.0000000
f    1   3   3    1     0.0000000
f    1   3   4    1     0.0000000
f    1   4   1    1     0.0000000
f    1   4   2    1     0.0000000
f    1   4   3    1     0.0000000
f    1   5   1    1     0.0000000
f    1   5   2    1     0.0000000
f    1   6   1    1     0.0000000
f    2   1   1    1     0.0000000
f    2   1   2    1     0.0000000
f    2   1   3    1     0.0000000
f    2   1   4    1     0.0000000
f    2   1   5    1     0.0000000
f    2   2   1    1     0.0000000
f    2   2   2    1     0.0000000
f    2   2   3    1     0.0000000
f    2   2   4    1     0.0000000
f    2   3   1    1     0.0000000
f    2   3   2    1     0.0000000
f    2   3   3    1     0.0000000
f    2   4   1    1     0.0000000
f    2   4   2    1     0.0000000
f    2   5   1    1     0.0000000
f    3   1   1    1     0.0000000
f    3   1   2    1     0.0000000
f    3   1   3    1     0.0000000
f    3   1   4    1     0.0000000
f    3   2   1    1     0.0000000
f    3   2   2    1     0.0000000
f    3   2   3    1     0.0000000
f    3   3   1    1     0.0000000
f    3   3   2    1     0.0000000
f    3   4   1    1     0.0000000
f    4   1   1    1     0.0000000
f    4   1   2    1     0.0000000
f    4   1   3    1     0.0000000
f    4   2   1    1     0.0000000
f    4   2   2    1     0.0000000
f    4   3   1    1     0.0000000
f    5   1   1    1     0.0000000
f    5   1   2    1     0.0000000
f    5   2   1    1     0.0000000
f    6   1   1    1     0.0000000
end

grid
0.96446195 1.68888476 103.00000000 -535.476301020771
0.95946195 1.68888476 103.00000000 -535.476277721554
0.96946195 1.68888476 103.00000000 -535.476278153146
0.95446195 1.68888476 103.00000000 -535.476206608565
0.97446195 1.68888476 103.00000000 -535.476210712505
0.94946195 1.68888476 103.00000000 -535.476085984952
0.97946195 1.68888476 103.00000000 -535.476100246269
0.94446195 1.68888476 103.00000000 -535.475914100039
0.98446195 1.68888476 103.00000000 -535.475948254708
0.93946195 1.68888476 103.00000000 -535.475689146817
0.98946195 1.68888476 103.00000000 -535.475756191686
0.93446195 1.68888476 103.00000000 -535.475409262173
0.99446195 1.68888476 103.00000000 -535.475525467059
0.92946195 1.68888476 103.00000000 -535.475072522922
0.99946195 1.68888476 103.00000000 -535.475257448704
0.92446195 1.68888476 103.00000000 -535.474676946105
1.00446195 1.68888476 103.00000000 -535.474953462252
0.91946195 1.68888476 103.00000000 -535.474220483347
1.00946195 1.68888476 103.00000000 -535.474614794417
0.91446195 1.68888476 103.00000000 -535.473701022629
1.01446195 1.68888476 103.00000000 -535.474242691268
0.90946195 1.68888476 103.00000000 -535.473116384602
1.01946195 1.68888476 103.00000000 -535.473838364094
0.90446195 1.68888476 103.00000000 -535.472464318847
1.02446195 1.68888476 103.00000000 -535.473402985543
0.89946195 1.68888476 103.00000000 -535.471742502459
1.02946195 1.68888476 103.00000000 -535.472937694255
0.89446195 1.68888476 103.00000000 -535.470948538923
1.03446195 1.68888476 103.00000000 -535.472443593547
0.88946195 1.68888476 103.00000000 -535.470079954690
1.03946195 1.68888476 103.00000000 -535.471921754506
0.88446195 1.68888476 103.00000000 -535.469134193767
1.04446195 1.68888476 103.00000000 -535.471373216840
0.87946195 1.68888476 103.00000000 -535.468108619851
1.04946195 1.68888476 103.00000000 -535.470798988027
0.87446195 1.68888476 103.00000000 -535.467000509605
1.05446195 1.68888476 103.00000000 -535.470200045733
0.86946195 1.68888476 103.00000000 -535.465807051585
1.05946195 1.68888476 103.00000000 -535.469577339418
0.86446195 1.68888476 103.00000000 -535.464525342272
1.06446195 1.68888476 103.00000000 -535.468931789096
0.85446195 1.68888476 103.00000000 -535.461685075760
1.07446195 1.68888476 103.00000000 -535.467575703248
0.84446195 1.68888476 103.00000000 -535.458454519141
1.08446195 1.68888476 103.00000000 -535.466138621571
1.08946195 1.68888476 103.00000000 -535.465391733370
0.83946195 1.68888476 103.00000000 -535.456684550715
1.11446195 1.68888476 103.00000000 -535.461403900316
0.81446195 1.68888476 103.00000000 -535.446141297681
0.76446195 1.68888476 103.00000000 -535.414915669489
1.26446195 1.68888476 103.00000000 -535.432246947448
0.66446195 1.68888476 103.00000000 -535.291588908782
1.36446195 1.68888476 103.00000000 -535.411422826994
1.46446195 1.68888476 103.00000000 -535.391644758707
1.56446195 1.68888476 103.00000000 -535.373846477022
1.66446195 1.68888476 103.00000000 -535.358508380142
1.76446195 1.68888476 103.00000000 -535.345815335893
1.86446195 1.68888476 103.00000000 -535.335744127577
1.96446195 1.68888476 103.00000000 -535.328122761086
0.96446195 1.68388476 103.00000000 -535.476290742308
0.96446195 1.69388476 103.00000000 -535.476288850025
0.96446195 1.67888476 103.00000000 -535.476257380647
0.96446195 1.69888476 103.00000000 -535.476254851029
0.96446195 1.67388476 103.00000000 -535.476200288587
0.96446195 1.70388476 103.00000000 -535.476199629439
0.96446195 1.66888476 103.00000000 -535.476118801775
0.96446195 1.70888476 103.00000000 -535.476123780016
0.96446195 1.66388476 103.00000000 -535.476012244314
0.96446195 1.71388476 103.00000000 -535.476027883151
0.96446195 1.65888476 103.00000000 -535.475879922548
0.96446195 1.71888476 103.00000000 -535.475912506829
0.96446195 1.65388476 103.00000000 -535.475721129848
0.96446195 1.72388476 103.00000000 -535.475778208180
0.96446195 1.64888476 103.00000000 -535.475535140423
0.96446195 1.72888476 103.00000000 -535.475625530171
0.96446195 1.64388476 103.00000000 -535.475321215360
0.96446195 1.73388476 103.00000000 -535.475455005809
0.96446195 1.63888476 103.00000000 -535.475078597491
0.96446195 1.73888476 103.00000000 -535.475267155749
0.96446195 1.63388476 103.00000000 -535.474806512487
0.96446195 1.74388476 103.00000000 -535.475062490017
0.96446195 1.62888476 103.00000000 -535.474504168744
0.96446195 1.74888476 103.00000000 -535.474841506898
0.96446195 1.62388476 103.00000000 -535.474170757209
0.96446195 1.75388476 103.00000000 -535.474604695362
0.96446195 1.61888476 103.00000000 -535.473805449550
0.96446195 1.75888476 103.00000000 -535.474352532243
0.96446195 1.61388476 103.00000000 -535.473407399244
0.96446195 1.76388476 103.00000000 -535.474085486453
0.96446195 1.60888476 103.00000000 -535.472975740259
0.96446195 1.76888476 103.00000000 -535.473804014652
0.96446195 1.60388476 103.00000000 -535.472509586162
0.96446195 1.77388476 103.00000000 -535.473508564388
0.96446195 1.59888476 103.00000000 -535.472008032112
0.96446195 1.77888476 103.00000000 -535.473199574287
0.96446195 1.59388476 103.00000000 -535.471470149516
0.96446195 1.78388476 103.00000000 -535.472877472835
0.96446195 1.58888476 103.00000000 -535.470894991193
0.96446195 1.78888476 103.00000000 -535.472542680823
0.96446195 1.57888476 103.00000000 -535.469628942240
0.96446195 1.79888476 103.00000000 -535.471836657330
0.96446195 1.56888476 103.00000000 -535.468201850322
0.96446195 1.80888476 103.00000000 -535.471084687433
0.96446195 1.81388476 103.00000000 -535.470692430185
0.96446195 1.56388476 103.00000000 -535.467425299310
0.96446195 1.83888476 103.00000000 -535.468582955217
0.96446195 1.53888476 103.00000000 -535.462868199326
0.96446195 1.48888476 103.00000000 -535.449887488075
0.96446195 1.98888476 103.00000000 -535.452622956353
0.96446195 1.38888476 103.00000000 -535.403095186034
0.96446195 2.08888476 103.00000000 -535.440888332712
0.96446195 1.28888476 103.00000000 -535.314074254293
0.96446195 2.18888476 103.00000000 -535.429665941201
0.96446195 1.68888476 104.00000000 -535.476270294167
0.96446195 1.68888476 102.00000000 -535.476272929423
0.96446195 1.68888476 105.00000000 -535.476181575529
0.96446195 1.68888476 101.00000000 -535.476185201380
0.96446195 1.68888476 105.50000000 -535.476115730814
0.96446195 1.68888476 100.50000000 -535.476118719711
0.96446195 1.68888476 106.00000000 -535.476035701656
0.96446195 1.68888476 100.00000000 -535.476037025932
0.96446195 1.68888476 107.00000000 -535.475833515117
0.96446195 1.68888476  98.00000000 -535.475556133221
0.96446195 1.68888476 108.00000000 -535.475575867150
0.96446195 1.68888476  98.00000000 -535.475556133221
0.96446195 1.68888476 110.50000000 -535.474694774755
0.96446195 1.68888476  95.50000000 -535.474600888331
0.96446195 1.68888476  93.00000000 -535.473240927869
0.96446195 1.68888476 115.50000000 -535.471964012451
0.96446195 1.68888476  90.50000000 -535.471464482666
0.96446195 1.68888476 118.00000000 -535.470142872612
0.96446195 1.68888476  88.00000000 -535.469260012362
0.96446195 1.68888476 120.50000000 -535.468037691619
0.96446195 1.68888476  85.50000000 -535.466616092217
0.96446195 1.68888476 123.00000000 -535.465664036807
0.96446195 1.68888476  83.00000000 -535.463521206923
0.96446195 1.68888476 125.50000000 -535.463038199375
0.96446195 1.68888476  80.50000000 -535.459963413065
0.96446195 1.68888476 128.00000000 -535.460177336124
0.96446195 1.68888476  78.00000000 -535.455929785197
0.96446195 1.68888476 133.00000000 -535.453824508535
0.96446195 1.68888476  73.00000000 -535.446373055915
0.96446195 1.68888476 138.00000000 -535.446766892435
0.96446195 1.68888476  68.00000000 -535.434686398132
0.96446195 1.68888476 143.00000000 -535.439192425837
0.96446195 1.68888476  63.00000000 -535.420589517935
0.96446195 1.68888476 148.00000000 -535.431324523162
0.96446195 1.68888476  58.00000000 -535.403576690653
0.96446195 1.68888476 153.00000000 -535.423432914066
0.96446195 1.68888476  53.00000000 -535.382743199379
0.96446195 1.68888476 163.00000000 -535.408955434710
0.96446195 1.68888476  43.00000000 -535.322552296861
0.96446195 1.68888476 173.00000000 -535.399111961720
0.96446195 1.68888476 180.00000000 -535.333989252847
0.96446195 1.67416187  95.41204544 -535.474205705212
1.03666945 1.72779399 103.00000000 -535.471652550642
1.16230627 1.75150156 103.00000000 -535.451508587924
0.89590574 1.83858284 103.00000000 -535.463128216701
0.96446195 1.92387026 129.27339301 -535.438462147411
0.96446195 1.73755052 150.56836682 -535.423879279989
0.90154427 1.81542520 103.00000000 -535.466037884295
1.34371700 1.65501426 103.00000000 -535.415121569591
0.93413177 1.68888476  95.79554147 -535.473772513662
1.04944394 1.56331514 103.00000000 -535.461641274214
0.96446195 1.81375024 109.08229544 -535.468579502798
1.09427982 1.68888476 115.46498650 -535.460231940687
1.16090462 1.68888476  74.89871955 -535.430667433517
0.75596095 1.68888476 104.86471891 -535.407951848116
0.87029844 1.51309446 103.00000000 -535.447039494902
0.99174301 2.01995593 103.00000000 -535.448597547222
0.84934524 2.04532522 103.00000000 -535.428384781038
0.95028017 1.68888476 110.45128012 -535.474537528322
1.27099499 1.68888476  97.89127045 -535.430245986163
0.96446195 1.77157945  92.63543502 -535.472149099911
0.89985783 1.71434045 103.00000000 -535.471462239786
0.77720665 1.68888476  73.65547073 -535.393089752442
1.10887792 1.88772027 103.00000000 -535.450636465099
0.89015493 2.17700267 103.00000000 -535.423808372460
0.87068148 1.68888476  68.47436053 -535.423255932169
1.01419001 1.68888476 127.52899197 -535.458585178031
0.96105346 1.69171888 103.00000000 -535.476285766604
1.21546648 1.58725847 103.00000000 -535.436572634944
0.89712833 1.73160081 103.00000000 -535.470513910793
1.14018532 1.68888476 117.38406251 -535.451140964890
0.96446195 1.49306374 107.19265715 -535.452729115758
0.96446195 1.63810273 127.41119356 -535.461419305389
1.24206753 1.68888476  97.84864592 -535.436263092252
0.96446195 1.87399011 127.99957324 -535.445517869867
0.96446195 1.75143658  90.97520461 -535.471930167107
1.25333876 1.69060467 103.00000000 -535.434568800156
0.84832028 1.68888476  57.75852674 -535.380532051212
0.96446195 1.59407480 104.25655079 -535.471710374096
0.96446195 1.87532437  81.22337779 -535.458980564460
0.92149994 1.68888476  80.75982510 -535.458037932244
0.91960947 1.40021095 103.00000000 -535.408218249641
0.96136443 1.68888476  68.68396639 -535.436318848898
1.04462798 1.68888476  76.06147023 -535.448847169509
0.96446195 2.00720852 112.44642222 -535.445551472253
0.99137116 1.87475582 103.00000000 -535.464715669528
1.40149156 1.68888476 118.73187847 -535.397974251697
0.96446195 1.72190713 128.19724998 -535.458473856143
1.12181052 1.68888476 107.10575159 -535.459608513781
0.96446195 1.98395521 124.81717548 -535.437067863970
1.06625704 1.93248936 103.00000000 -535.452141192391
1.30378478 1.68888476 123.66263475 -535.413190890427
0.96446195 1.76842914  78.88455280 -535.460087961677
0.87630346 2.17667477 103.00000000 -535.420846431099
0.98715142 1.68888476 133.73877092 -535.452291026691
0.96446195 2.02127510 115.38419726 -535.441722532311
0.96446195 1.90175558 107.76807920 -535.460537772916
0.96446195 1.65114517 119.54832107 -535.469186073480
0.98003474 1.65505842 103.00000000 -535.475529839376
0.95927528 1.68888476 104.23313402 -535.476230714949
1.05784017 1.68888476 130.11882655 -535.450872196264
0.98017984 1.68888476  91.80600057 -535.472272270043
0.88175499 1.66200667 103.00000000 -535.468330508406
1.31360365 1.68748834 103.00000000 -535.421962085776
1.33726915 1.82364627 103.00000000 -535.411253992555
0.96446195 1.96044984 118.46760025 -535.446202685288
1.05510547 1.60900127 103.00000000 -535.466654740792
0.99373301 1.68888476  91.74533809 -535.471750681207
0.96446195 1.74487273  66.10745449 -535.435371685878
0.85908112 1.68888476  84.91264730 -535.452003277898
0.89243821 1.43906689 103.00000000 -535.425282854669
0.96446195 1.91921784  75.92479295 -535.451040042186
1.29168253 1.64034640 103.00000000 -535.425313110016
0.93925365 1.68888476  89.64178613 -535.470033702204
0.96446195 1.41897428 103.39650231 -535.421015838736
1.01828762 1.68888476  80.65574509 -535.458402602854
0.96446195 1.81099665 139.27432164 -535.435830123011
0.96446195 1.54535859 127.99084795 -535.454247302291
0.99192832 1.95035785 103.00000000 -535.456625779104
1.04526772 1.68888476  86.48615373 -535.463149764929
0.98624567 1.56598865 103.00000000 -535.467279289227
1.08296168 1.68888476  71.43276273 -535.436056301814
1.37496066 1.65919313 103.00000000 -535.408857511815
1.07060218 1.64203701 103.00000000 -535.466934456123
0.77040458 1.68888476 110.83738709 -535.417929855952
0.82234158 1.96036056 103.00000000 -535.427976352923
0.95133151 1.68888476 100.76483933 -535.475986342931
0.96446195 1.56415881 135.72437022 -535.447542691296
0.96323292 1.68888476 119.97192245 -535.468506167721
0.97358087 1.79057027 103.00000000 -535.472381208460
0.96446195 2.01457220  94.03011225 -535.451159274701
0.98655498 1.87526678 103.00000000 -535.464838239467
0.94257673 1.68888476 128.21154763 -535.459524563039
0.94312786 1.68888476  60.21479400 -535.409953091382
1.17051702 1.68888476 109.61406540 -535.449937257418
0.90708504 1.59848820 103.00000000 -535.468638220051
0.74324755 1.68888476 116.63261057 -535.391916044037
0.96446195 1.66435704 135.42477181 -535.451210444442
0.96446195 1.43602255 111.09378012 -535.432597264957
1.01708103 1.79460633 103.00000000 -535.470042686249
0.96446195 1.76553577 105.61458057 -535.473462524507
0.87629303 1.54880567 103.00000000 -535.456295499795
1.07181987 1.73895990 103.00000000 -535.467042766338
0.96446195 1.71774280 105.73850634 -535.475577799272
0.96446195 1.70876003  90.57778986 -535.471939125438
0.96446195 1.96429512  88.76247669 -535.455772887712
1.24615516 1.47887231 103.00000000 -535.406860354477
1.26168693 1.76184093 103.00000000 -535.431045603346
0.98565650 1.68888476  75.28340018 -535.450961979557
1.21764227 1.68464960 103.00000000 -535.441896664220
0.85802687 1.68888476  74.81160679 -535.434853662636
0.96446195 1.80212571 151.19169597 -535.416840827700
0.78836259 1.63649111 103.00000000 -535.430745072300
1.25910729 1.68888476 111.83794724 -535.431156268068
0.97616102 1.68888476  73.17028635 -535.446851562096
0.97234093 1.68888476 116.53696289 -535.471175809380
0.96446195 1.65878540  94.30993108 -535.472953016860
1.47244320 1.78280543 103.00000000 -535.386869106843
1.14389702 1.68888476 110.99925152 -535.454343483470
0.84978038 1.68888476  71.46514272 -535.424652123890
0.95155555 1.68888476  96.16238646 -535.474714785660
1.15500283 1.68888476  74.22565509 -535.430581142442
0.93436831 1.84860888 103.00000000 -535.466642025542
0.96446195 1.87528577 117.01102064 -535.457100254573
0.78741541 1.67045084 103.00000000 -535.431107871747
1.19750964 1.88197009 103.00000000 -535.435096201886
1.00243155 1.68888476  72.06204804 -535.444013692111
0.96446195 1.84015446  71.33601122 -535.448284919622
0.96446195 1.92521704 116.05392596 -535.452372279062
0.96446195 1.64823108  85.79394038 -535.464204207100
1.00834763 1.68888476 136.79048148 -535.446748586602
1.28613439 1.68888476 116.43268674 -535.422893785651
0.75445496 1.67440659 103.00000000 -535.406745949509
0.79490875 1.74295811 103.00000000 -535.434125628555
1.01217177 1.90202547 103.00000000 -535.460801258396
0.75139675 1.68888476 130.10548524 -535.386228845800
0.96446195 1.64889995 133.96319689 -535.453394848785
0.96446195 1.81553778  76.27630762 -535.456077086039
0.90327245 1.68888476  93.21789481 -535.469221486742
0.96446195 1.44907326 125.70467247 -535.432925158778
0.76609923 1.68888476 123.05152432 -535.406067714770
0.96446195 1.68357694 122.40671950 -535.466385980964
0.96446195 1.94113494 109.56556498 -535.455143483772
0.99914076 1.68888476 111.03817666 -535.473403325316
0.96446195 1.96693406 102.20408247 -535.455416163843
0.96446195 1.75097014 126.69696377 -535.458455283510
1.01386484 1.68888476 109.90953991 -535.472880185491
0.96446195 1.88330147  85.71283933 -535.461720172899
0.81092505 1.68888476 122.49495375 -535.434688587583
0.98072226 1.68888476 123.00426323 -535.465391399743
1.07126041 1.68888476  79.04691744 -535.450721274004
1.35328503 1.73866495 103.00000000 -535.412846037546
0.99163793 1.92382115 103.00000000 -535.459582306332
0.96446195 2.01734575 110.41286163 -535.445686078926
0.86319475 2.03517698 103.00000000 -535.433893298600
0.96446195 1.58434724 111.17372504 -535.470182403882
0.96979198 1.81382988 103.00000000 -535.470692185317
1.22036426 1.68888476 106.94861218 -535.440863160060
1.10210148 1.68888476 103.83071870 -535.463390518667
0.96446195 1.71806182 125.82622998 -535.461473432055
1.31634851 1.72706363 103.00000000 -535.420905815186
0.96446195 1.66914696  81.23833916 -535.459632001144
0.84501160 1.68888476 116.18265613 -535.454057190470
0.96446195 1.53191823  70.71690410 -535.406560119310
1.01776010 1.98446143 103.00000000 -535.451270602792
1.00005861 1.59769114 103.00000000 -535.470727041520
0.96446195 1.68512231 111.00336134 -535.474523466248
1.12294726 1.83220819 103.00000000 -535.453389498749
1.06897018 1.73809517 103.00000000 -535.467460024559
0.99308416 1.68888476  82.04180776 -535.461766958198
1.11363191 1.68888476  83.18692407 -535.450184687196
1.28804454 1.68888476  94.87090038 -535.425610617793
0.96446195 1.87550132  84.44021172 -535.461476636029
0.82791445 2.09976873 103.00000000 -535.413655425607
1.19656585 1.68888476 117.45753528 -535.440391754839
0.96446195 1.80772559  95.45947712 -535.471135277039
0.96446195 1.83579881  88.82188598 -535.466855024424
0.88301665 1.73513150 103.00000000 -535.467819099411
1.11018672 1.78251754 103.00000000 -535.459112717088
1.41160176 1.69184291 103.00000000 -535.401894642707
0.84541152 1.67663767 103.00000000 -535.458766746279
0.96446195 1.77656005  99.54433475 -535.473544066704
1.42105697 1.68888476  97.58045143 -535.399179393349
1.11616959 1.68888476  95.45653855 -535.459613842939
1.26560411 1.68888476 105.84260583 -535.431745607773
0.74068272 1.59962306 103.00000000 -535.390789535903
1.07119347 1.68888476 103.84416908 -535.467994176109
0.90832772 1.74827032 103.00000000 -535.471427011308
0.96446195 1.57553055 145.13078965 -535.435601764043
0.96446195 1.66779931  80.09511065 -535.457702906409
0.97655834 1.70238104 103.00000000 -535.476091865069
1.08467740 1.68888476 134.40876646 -535.441432132125
0.71200863 1.59726291 103.00000000 -535.359357187688
0.96446195 1.98523692  94.98372717 -535.454439470921
0.96446195 1.90380906 120.82655036 -535.450397371757
1.30085042 1.68888476 107.34764212 -535.424083454651
0.96446195 1.53907888 138.97079834 -535.440455329132
0.88346431 1.68888476 104.93891285 -535.468850247658
0.96446195 1.76228692 107.78603218 -535.472951004983
0.96446195 1.84409723 110.10989770 -535.465257334857
0.96446195 1.97570767  82.67777388 -535.452012636777
0.89698607 1.68888476  63.23285936 -535.413691589533
1.10642725 1.68888476  93.96683367 -535.460513307906
1.39285832 1.77296741 103.00000000 -535.403154761362
0.91719236 1.68888476  99.06721293 -535.473497603067
1.06508114 1.78967098 103.00000000 -535.465311731420
0.96446195 1.53667837 125.85125086 -535.455016139844
0.92498533 1.68888476  83.22461620 -535.461925419586
0.96446195 1.95937939  88.87678292 -535.456302523711
1.49634362 1.59740909 103.00000000 -535.382135456090
0.99184828 1.68888476  77.13997334 -535.454181373877
0.96446195 1.77721965 114.45121314 -535.468282753515
0.84195862 1.68888476 125.96052309 -535.444198131195
0.96446195 1.52314447  96.22526525 -535.454841559435
1.05635938 1.68888476 121.26166144 -535.460884913687
1.10876062 1.68888476  67.62726827 -535.425031365088
0.86880709 1.68888476 105.34634849 -535.465518575236
0.90104912 1.87850592 103.00000000 -535.460069564249
0.96446195 1.99580254  93.49791184 -535.453237104515
0.96446195 1.57887797  90.91720304 -535.461364216007
1.10962220 1.68888476  93.26865167 -535.459620510517
1.46885765 1.66815306 103.00000000 -535.390689765794
1.05355857 1.68888476 129.65675612 -535.451987919191
1.37703132 1.56942207 103.00000000 -535.401295270521
1.13279242 1.68888476 118.32595662 -535.451721692613
1.03620008 1.68888476  91.40826281 -535.468342913804
0.95025529 1.68888476 136.63541985 -535.448625915715
1.25857837 1.68888476 105.59793732 -535.433248132415
1.07581452 1.68888476 115.16657255 -535.463165594862
0.90653562 1.68888476  85.23399102 -535.462379604643
0.82424072 1.83341889 103.00000000 -535.442586001064
0.69264051 1.93752806 103.00000000 -535.316279510050
1.05468918 1.68888476  84.56391326 -535.460011930973
0.77910691 2.01406734 103.00000000 -535.396781831251
0.91527669 2.05700789 103.00000000 -535.441540854263
1.02632760 1.92991572 103.00000000 -535.456720488144
0.95033699 1.84365509 103.00000000 -535.467892177819
1.06759687 1.68888476 106.89301545 -535.468026537458
0.96446195 1.84583643 102.35746992 -535.468098076008
0.96446195 1.71922132 115.51099791 -535.470995509011
0.96446195 2.01738289 111.03005457 -535.445292902567
0.94652754 1.99957264 103.00000000 -535.450889455637
0.96446195 1.86747381  74.55024988 -535.452162436824
1.09417273 1.63504518 103.00000000 -535.463104262146
0.96446195 2.09006776  96.77572905 -535.442337898906
0.84061709 1.68888476 130.08145898 -535.438917184183
0.96446195 2.09515493 108.69267776 -535.437571727361
0.96446195 2.05371038  95.96348081 -535.446614897639
0.99668657 2.13979133 103.00000000 -535.434555134497
1.33814712 1.68888476  84.69093646 -535.407908648188
0.96446195 1.58571683  95.95690419 -535.467133198018
0.89451941 1.99861005 103.00000000 -535.445421573766
0.95323347 1.68888476 126.32874397 -535.462024994236
1.01858333 1.68888476 111.70280573 -535.471712057823
0.96446195 1.50537085 147.47114792 -535.423732601278
1.05213398 1.69766461 103.00000000 -535.470465619116
0.96446195 1.55581521 118.05341857 -535.463745233597
0.96446195 1.45046350 113.82803515 -535.438633451792
0.96446195 1.62171354  69.84907089 -535.428900876756
0.83971918 1.68888476 107.93176679 -535.456170734594
0.96446195 1.82814406  91.90658753 -535.468745135458
1.08631244 1.75749660 103.00000000 -535.464198119173
0.95859978 1.68888476 115.00281405 -535.472267283524
0.96446195 1.68915089  97.67638750 -535.475457844651
1.18270466 1.79555388 103.00000000 -535.445163720530
0.99285205 1.68888476 107.88389634 -535.474892840037
0.81320022 1.70317408 103.00000000 -535.445352922833
1.42626419 1.68888476 112.53908442 -535.396883405175
0.96446195 1.57501813 111.62327636 -535.469006362151
0.93302760 1.68888476 104.19069785 -535.475281618765
0.90941147 1.68888476  97.08813893 -535.471991859216
1.37081013 1.71557573 103.00000000 -535.409868541257
0.96446195 1.49998838  71.97331450 -535.397866262954
0.89673879 1.82481889 103.00000000 -535.464488803762
0.79543332 1.51129336 103.00000000 -535.417117267822
1.27557638 1.66692373 103.00000000 -535.429642031310
0.89838963 1.68888476  99.77478286 -535.471230289717
0.96446195 1.73504416 112.30114430 -535.472312084456
0.96446195 1.70337148  91.83038838 -535.472747675722
0.98607389 1.68888476 112.10828674 -535.473520089204
1.13321381 1.68888476  93.93896335 -535.455978039237
1.02310789 1.68888476  84.27072776 -535.462800779519
0.96446195 1.78279902  88.85462036 -535.469647329670
1.24115296 1.75079548 103.00000000 -535.435815085347
0.96446195 1.48139639 133.06523435 -535.436269605937
0.84387899 1.68888476  88.58263154 -535.451248837547
1.24688122 1.63501494 103.00000000 -535.434340297303
1.19086353 1.47054190 103.00000000 -535.414839998792
1.01998570 1.80494165 103.00000000 -535.469069692310
0.96446195 1.70909926  66.48721528 -535.433091855779
0.91178467 1.66444954 103.00000000 -535.473162979147
0.96446195 1.72955201  89.30447940 -535.471084419635
0.92975068 1.68888476 109.69926678 -535.473838881153
0.96446195 1.79214483  88.95135022 -535.469325971889
0.78901865 1.68888476  91.93915235 -535.427894591278
1.25695861 1.68888476 107.12999681 -535.433283373852
0.96446195 1.72246138  83.05842220 -535.464892976092
1.05025317 1.68888476 129.71048633 -535.452319464596
0.96446195 1.70284956 112.46093851 -535.473471338060
0.85428147 1.69313713 103.00000000 -535.461604005517
1.05183713 1.68888476 128.55996498 -535.453553222486
1.36959764 1.68888476 117.16370761 -535.405374956223
1.11224197 1.68760962 103.00000000 -535.461769281835
1.25323038 1.76308860 103.00000000 -535.432747880661
0.96446195 1.74948984 141.56549860 -535.437607799494
1.10623984 1.74425893 103.00000000 -535.461691022459
0.81212687 1.72333609 103.00000000 -535.444286853827
1.12812877 1.79232834 103.00000000 -535.455470794557
0.97262954 1.68888476  82.51555301 -535.462878780949
1.11443449 1.68888476 142.55700511 -535.424424326018
0.96446195 1.93539607 106.37188797 -535.457456127169
0.78082601 1.68888476  85.21091603 -535.415790280534
0.96446195 1.54260551 141.85860794 -535.437054726047
1.11604825 1.63555700 103.00000000 -535.459588891451
1.05583113 1.68888476 135.40226341 -535.443974882581
0.96446195 1.89970342 120.45549549 -535.451225661459
0.96446195 1.87190234 120.08629351 -535.454623164367
0.95716289 1.68888476 122.10863115 -535.466505519568
0.74665586 1.68888476  84.43759384 -535.387635860232
0.96446195 1.67211211 120.49752607 -535.468354288295
0.84037473 1.81962997 103.00000000 -535.450318894027
0.97929929 2.10052189 103.00000000 -535.439514023612
0.91454990 1.61428226 103.00000000 -535.470964098000
0.96446195 1.85754342  64.41546288 -535.435534080416
1.15747150 1.63982932 103.00000000 -535.452420831522
1.24502184 1.68888476 114.65704994 -535.432523566068
0.96446195 1.81901346 119.74512210 -535.460294126015
0.83557492 1.43670057 103.00000000 -535.409243786872
0.96446195 1.77397734 115.62879986 -535.467657970145
0.96446195 1.90526423  88.55669889 -535.461328914815
0.85297880 1.68888476 122.30948364 -535.451565472814
1.10668410 1.68888476  89.56651020 -535.457598722718
0.86270200 1.68888476 129.57280828 -535.446395589006
1.27074519 1.66248212 103.00000000 -535.430538105850
0.80541931 1.68888476 135.39429890 -535.416638183371
0.96446195 1.63361534 129.76092581 -535.458641192895
0.91901005 1.72716987 103.00000000 -535.473496091724
1.06976553 1.68888476  96.10224447 -535.466933798269
0.96446195 1.55266882 129.84877701 -535.453256843326
0.79209693 1.69829825 103.00000000 -535.433917339376
0.87327577 1.50607963 103.00000000 -535.445860952792
0.96446195 1.71945240  84.99531466 -535.467045314374
0.93338078 1.68888476  87.01441628 -535.467144085301
0.79534612 1.68888476 101.09205818 -535.435792800790
1.22584748 1.68888476 126.67200186 -535.425798073904
0.86391990 1.68888476  90.43649549 -535.459139725444
0.93187938 1.59750199 103.00000000 -535.470889755610
0.96446195 1.81686916 108.26920419 -535.468699224035
0.80272138 1.70355790 103.00000000 -535.439930396504
0.98889606 1.68888476 134.35930318 -535.451358606412
1.23489172 1.68888476 111.83335440 -535.436147468153
0.96446195 1.80131760 107.81677413 -535.470189293618
1.24254906 1.68888476  96.71156401 -535.435821374614
1.40370846 1.67293627 103.00000000 -535.403362038711
1.35337202 1.68888476  85.61275374 -535.405618979441
0.96446195 1.75948066  79.78242676 -535.461256383934
0.83250669 1.68888476 130.12982349 -535.435833221514
0.78679170 1.98862165 103.00000000 -535.405077147109
0.89886995 1.70770821 103.00000000 -535.471451916438
1.00599790 2.08943051 103.00000000 -535.439831713195
0.88575849 1.68888476 108.47945186 -535.468585295912
0.96446195 1.68853397 107.72342388 -535.475655644596
0.96446195 1.47931079 124.75004602 -535.443418942756
1.23246644 1.73416338 103.00000000 -535.438218902480
0.80654463 1.68888476  98.45750980 -535.441404662476
1.22501083 1.68888476 106.70943180 -535.439969072839
1.12579858 1.68888476 130.17016458 -535.440510875800
0.85786925 1.68888476 134.30377596 -535.438949613354
0.96446195 1.69626897 131.38464221 -535.455679214051
0.96446195 1.98760759 105.35375874 -535.451866892267
0.80697444 1.68888476  76.56761850 -535.417549564893
1.17799649 1.67324051 103.00000000 -535.449658530992
0.92312862 1.85822534 103.00000000 -535.464821339486
0.90363489 1.68888476  92.80149991 -535.469003408748
0.96446195 1.65106835 121.66470948 -535.467369998326
0.96446195 1.79484242 127.75127205 -535.453666524572
1.11389060 1.79715601 103.00000000 -535.457556721533
0.96446195 1.70405028 129.14285103 -535.458201432246
1.11224783 1.68888476  68.84117008 -535.427131963397
0.79781698 1.68888476  77.40910626 -535.414114367158
0.96446195 1.82730699 139.09418871 -535.434521785377
0.96446195 1.72577300 127.33629359 -535.459297540037
0.96446195 1.56423497  87.99378034 -535.454817384008
0.96446195 1.87248988 123.42594668 -535.451078935889
1.16315867 1.68888476 106.31042196 -535.452299552770
1.02774095 1.68888476 126.28405735 -535.458841199829
0.96446195 1.92605300  76.34206801 -535.451026299809
0.96446195 1.79339116  68.77387499 -535.443576058687
1.06630963 1.99329679 103.00000000 -535.445324304566
1.35031298 1.66463315 103.00000000 -535.414035304437
0.93113910 1.65264600 103.00000000 -535.474606191344
1.18161620 1.66135740 103.00000000 -535.448672846117
0.84367807 1.68888476  69.37104248 -535.417210941158
0.82089829 1.90845701 103.00000000 -535.433329655251
0.89361370 1.68888476  92.94090422 -535.467526167372
1.14318105 1.68888476  66.60256021 -535.418311051599
1.18328573 1.72295801 103.00000000 -535.448432745748
0.96446195 1.80212410 123.59488253 -535.457887426752
0.79046451 1.68888476  98.63544003 -535.432312960252
1.08799723 1.68888476 104.73086106 -535.465496884270
0.96446195 1.69102895 100.37362833 -535.476108595914
0.96446195 1.59005736  85.96649422 -535.456832954412
0.96446195 1.96618249  96.91808329 -535.456479378654
0.96446195 1.81431134 121.51362239 -535.458982004612
0.98167118 1.85682255 103.00000000 -535.466762194443
1.23991653 1.45152596 103.00000000 -535.398020381248
1.12574705 1.95719618 103.00000000 -535.440531937950
0.96446195 1.84566596 113.72842244 -535.462773574145
1.19690306 1.68888476 109.44859103 -535.444839425476
1.09493162 1.69838729 103.00000000 -535.464540790372
1.14671276 1.68888476  73.50384249 -535.430747425663
1.16583222 1.68888476 103.90268790 -535.452122550390
1.13185607 1.68888476  81.29015801 -535.444856972733
1.41953836 1.68888476  95.20426187 -535.398617092346
0.96446195 1.72011441 137.56951398 -535.445798207135
0.96446195 1.81197073 130.46026201 -535.448602861207
0.77704976 1.72389248 103.00000000 -535.423436060010
0.84390889 1.80701218 103.00000000 -535.452645061827
0.96446195 1.72323207  74.54744024 -535.452010787759
1.03500792 1.68888476 113.67371010 -535.469119626150
0.96446195 1.88474423 111.03672672 -535.460544222289
0.85455870 1.68888476 102.35065939 -535.461689748309
0.96446195 1.59484513  82.67351842 -535.452389058566
1.28264774 1.53756959 103.00000000 -535.414939200107
0.94538759 1.68888476  69.20168653 -535.436820244903
1.31840478 1.52328336 103.00000000 -535.404642071597
1.05213757 1.68888476 135.14712109 -535.444793982564
1.22042088 1.65013977 103.00000000 -535.440517752537
0.96446195 1.83741225 111.80173763 -535.464886681693
1.31438715 1.53085109 103.00000000 -535.407105743498
1.03703048 1.68888476  75.51378509 -535.448572877602
0.83693024 1.68888476 111.82067653 -535.453709789804
0.96446195 1.70909283 114.73353984 -535.471917635576
1.19496072 1.68888476  86.23874728 -535.438779690355
0.77920873 1.71407888 103.00000000 -535.425254476903
0.96446195 2.05018291  90.61304356 -535.446972404129
0.96446195 1.83161783 119.69149402 -535.459138084976
1.37802705 1.72104615 103.00000000 -535.408272691781
1.00967418 1.68888476  98.47416439 -535.474030623561
0.96446195 1.53386676 114.12744839 -535.461997741639
0.96446195 1.58372458 127.23482553 -535.459183348880
0.94423529 1.68888476  90.23392549 -535.470779483833
0.84199212 1.68888476  82.96088741 -535.443842540137
1.23718921 1.68888476 100.93853401 -535.437832825843
0.83637350 1.89492156 103.00000000 -535.441367579271
0.67427139 1.76969838 103.00000000 -535.304874409515
1.01288721 1.68888476  63.17342845 -535.421514442772
0.92639136 1.68888476  86.63080387 -535.466190088695
0.96446195 1.55131726  94.32493951 -535.459670842996
0.96446195 1.69905492 137.23284891 -535.447438802634
1.08758838 1.62015116 103.00000000 -535.463109483182
0.96446195 1.53508306 132.09761088 -535.448338981822
0.96446195 1.82905814  87.00174516 -535.466202285263
0.96552386 1.81418031 103.00000000 -535.470672161315
0.99522109 1.68888476 109.12791848 -535.474381774876
0.96446195 1.55310318 121.76841684 -535.460860485895
0.90220003 1.68888476 116.19419714 -535.467440297996
0.93482421 1.76334593 103.00000000 -535.473171401178
0.96446195 1.76841453 135.77370444 -535.444979047880
0.96446195 1.66900781  72.88098631 -535.443961133075
0.96446195 1.52604205 101.42446825 -535.459321967900
0.96446195 1.98282577 102.37500449 -535.453530894349
0.82876066 1.68888476 121.20557067 -535.443963341615
0.96446195 1.73573538 134.02343903 -535.449944478200
0.96446195 1.78743251 107.84439569 -535.471240415086
0.74436980 1.64460524 103.00000000 -535.397142634545
1.23775051 1.54325402 103.00000000 -535.425211792177
0.96446195 1.84116974  84.69665540 -535.463883741279
1.06672193 1.68888476  94.04994259 -535.466397602381
1.04565522 2.08179924 103.00000000 -535.437484401711
0.85974026 1.45776269 103.00000000 -535.426207042650
0.96446195 1.84128745 114.54467133 -535.462603862652
1.29322280 1.68888476 111.20261015 -535.424366187344
1.30661389 1.74167126 103.00000000 -535.422483111120
0.97961951 1.84065488 103.00000000 -535.468292763449
1.19061695 1.68888476 105.57035833 -535.447111634262
1.10718892 1.68888476  84.44207053 -535.452645966852
1.43532186 1.68888476 117.33276531 -535.392481431756
1.10318967 1.62440555 103.00000000 -535.460991019129
0.96446195 1.82329105  91.68290257 -535.468984593964
1.22463627 1.68888476  96.14989531 -535.439314774535
0.96446195 2.09422637 104.45382146 -535.439707269763
0.96446195 1.67137754 102.46500521 -535.476135691545
0.96446195 1.73342804 125.32672201 -535.461184432947
0.96446195 1.89212759 108.92697224 -535.460980722318
0.93579461 1.73800135 103.00000000 -535.474443245740
0.96446195 2.08558695 119.18539789 -535.431226505661
0.96446195 1.65593531 124.66669764 -535.464471690047
0.87526068 1.91759560 103.00000000 -535.450861884774
0.99059429 1.68888476  84.31198879 -535.464798102864
1.12311785 1.69916042 103.00000000 -535.459921095744
1.03263439 2.06411220 103.00000000 -535.440797295276
1.00577772 1.68888476  73.96764099 -535.447764766226
0.96446195 1.80978098  83.17398869 -535.464127801211
1.35069859 1.71241979 103.00000000 -535.414070217268
1.11364398 1.91281494 103.00000000 -535.447312024391
1.05990995 2.01875962 103.00000000 -535.443179029957
1.01480848 1.68888476 139.70066466 -535.441918141515
0.87006977 1.68888476  69.44453355 -535.425665786680
1.07400071 1.91590042 103.00000000 -535.452905326667
0.97836319 1.68888476  81.73234928 -535.461733758096
0.96446195 1.81460882 123.80771861 -535.456506042863
0.85859636 1.73950169 103.00000000 -535.461646315390
0.89315411 1.96466320 103.00000000 -535.449185759573
0.96446195 1.82128550 120.52165581 -535.459324541039
0.96446195 2.08097710  98.67262656 -535.443047077537
1.15804522 1.68888476 130.59806278 -535.434189351976
1.09971838 1.68888476 106.84932749 -535.463317865980
1.14974437 1.68888476 138.73586339 -535.424211327230
1.04603956 1.57862612 103.00000000 -535.464312423133
0.81395861 1.49251145 103.00000000 -535.421528578445
1.12818834 1.68888476 110.34425205 -535.457428387680
1.14694018 1.68888476 117.63321704 -535.449727310423
1.03493339 2.17699541 103.00000000 -535.427885875626
1.09803529 1.68888476  79.86590793 -535.448270444291
1.28922210 1.68888476 116.25162577 -535.422380029156
1.41370752 1.68888476 101.91999210 -535.401437119949
0.83550419 1.68888476 105.78786158 -535.455038072050
1.22073069 1.68888476 113.85529393 -535.437959846916
1.11838612 1.68888476 129.11756733 -535.443095719181
0.96446195 1.75523046 130.96658906 -535.452762365707
0.96446195 1.68132645 102.83178342 -535.476273464958
0.96124704 1.86812440 103.00000000 -535.465816394108
0.75190899 1.68888476 117.24245552 -535.399356915118
0.96446195 1.44375189  89.43526196 -535.415741642290
0.81590014 1.68888476 130.35773173 -535.428415312472
0.96446195 2.00628585  91.72719817 -535.451940272796
0.96446195 1.67632682 112.69912131 -535.473785214995
0.96446195 1.59322078  85.51935980 -535.456710613520
1.09295988 1.56823384 103.00000000 -535.456424578304
0.96446195 1.67760620 116.44500618 -535.471494780030
0.96446195 1.73930311  78.94845470 -535.459835219951
1.15900629 1.68888476 112.03482246 -535.451059137103
0.95457881 1.94537734 103.00000000 -535.457452382313
0.96446195 1.74102432 120.40597994 -535.465821528542
1.25635136 1.62580069 103.00000000 -535.431802707143
0.86539253 1.80459724 103.00000000 -535.459454624527
0.96446195 1.83785828 111.19790339 -535.465219393498
0.91380283 1.50440340 103.00000000 -535.452069362228
0.90579268 1.68888476 133.36186542 -535.449927108028
1.38118121 1.68888476  96.96547117 -535.407017817112
0.81195539 2.14649562 103.00000000 -535.400694621287
1.24198709 1.61086543 103.00000000 -535.433611670997
0.91169783 1.43261052 103.00000000 -535.424903020882
1.13695796 1.68888476 117.70661611 -535.451471382017
0.96446195 1.64362173  83.87836578 -535.461165028047
1.07526710 1.68888476 138.74848410 -535.436448930355
0.86050315 2.05519506 103.00000000 -535.430712128978
1.13470737 1.68888476  95.57027194 -535.456467992313
1.32209806 1.66793391 103.00000000 -535.419951104975
0.89687567 1.69043297 103.00000000 -535.471335981338
0.95480681 1.68888476 135.64658416 -535.450119094281
1.12412423 1.68888476 100.30862615 -535.459609547765
0.96446195 1.73675022  66.89777077 -535.436675948352
1.21675198 1.66688342 103.00000000 -535.441804701023
0.96446195 1.79506507 111.67594669 -535.468714806532
1.00109608 1.82515415 103.00000000 -535.468784453124
0.81812247 1.68888476  78.27755864 -535.426374759757
0.88953358 2.15159459 103.00000000 -535.426509442824
1.16215569 1.88220093 103.00000000 -535.441880663532
0.96446195 1.62043024 120.40257055 -535.467727687013
0.92039554 1.41930894 103.00000000 -535.419060278793
0.96446195 1.68574450 104.37583481 -535.476248262885
0.96446195 1.74517606  80.48690029 -535.462058043634
0.96446195 1.56063088  76.89319356 -535.432829316641
0.96446195 1.80020396 117.30565867 -535.464196926758
0.75010381 1.68888476 104.92037381 -535.402864026138
0.96446195 1.69267806  84.97073003 -535.466174495295
0.90211790 2.00816303 103.00000000 -535.445546371064
0.96446195 1.69830932  71.53325870 -535.444103132875
0.93683790 1.56983116 103.00000000 -535.467679914714
0.99415086 1.68888476  72.41396062 -535.445023650574
0.96446195 1.70734730 127.61326337 -535.459912676590
0.77703118 1.68888476 112.50762159 -535.421935351706
0.96446195 1.55195111 106.13111877 -535.466100691344
1.09048478 1.68888476  75.55240003 -535.442647195196
0.90651856 1.52554842 103.00000000 -535.456624251595
0.95131379 1.59610653 103.00000000 -535.471582455063
0.96446195 1.76600175  90.75933577 -535.471400233751
0.97354681 1.68888476 112.74850528 -535.473536731525
1.02175520 1.75372302 103.00000000 -535.472060638195
0.96446195 1.76883576 103.94411146 -535.473651932752
0.96446195 2.11595493 120.47650894 -535.426820586075
0.85743270 1.68888476 131.33312244 -535.442735732432
0.83299217 1.71436778 103.00000000 -535.453820848095
0.86772205 1.64716156 103.00000000 -535.464676127721
0.96446195 1.61633018  86.74757175 -535.461916825501
0.96446195 1.68904528 127.07581840 -535.461256038422
0.86830020 2.09453381 103.00000000 -535.428209010107
1.01052957 1.66573117 103.00000000 -535.474263087376
1.01990968 2.14573882 103.00000000 -535.432542882319
1.12566964 1.71289761 103.00000000 -535.459325361321
0.97320610 1.68888476 112.79606184 -535.473517052819
1.02107641 1.74299859 103.00000000 -535.472587431113
1.05304622 1.68888476 116.18097936 -535.465470547805
0.96446195 1.78649420 145.52548966 -535.427980595309
1.04893605 1.63337531 103.00000000 -535.469229783567
0.90871276 1.90457543 103.00000000 -535.458417864519
1.31464132 1.68888476 107.31079312 -535.421219479968
0.96446195 1.83575875 102.50964026 -535.468963987049
1.00132935 1.68888476 129.32976651 -535.457317426345
0.96446195 2.17509581 112.55880240 -535.426476833198
0.79559854 1.68888476  93.69872460 -535.433099820299
1.07554794 1.68888476 108.08382501 -535.466614762254
0.70584622 1.68888476 128.41054029 -535.339369671781
0.87100867 1.68888476  88.50016494 -535.459207221641
0.78727020 1.68888476  75.27930204 -535.403407318380
0.96446195 1.87261458 106.59302215 -535.464160986215
0.73643653 1.68888476 146.72181837 -535.349185185566
0.96446195 1.66415801 112.92023195 -535.473671120358
0.96446195 1.75796138 111.56029010 -535.471444634561
1.15455349 1.71376369 103.00000000 -535.454113305517
1.00418267 1.83641904 103.00000000 -535.467650031411
1.38793888 1.68888476 114.40689195 -535.403438281253
0.96446195 1.67403057  65.09147020 -535.424619875364
0.92269316 1.76622176 103.00000000 -535.472066756411
0.96446195 1.77536309  87.20709558 -535.468731910945
0.73793827 1.49454263 103.00000000 -535.368475841293
0.96446195 1.79741259  80.22969215 -535.461441794854
1.19633766 1.42391849 103.00000000 -535.393985108837
0.89255383 1.53838775 103.00000000 -535.457389093604
1.28505796 1.61789328 103.00000000 -535.425268644020
0.96446195 1.67555604 100.87645427 -535.476032050505
1.21080238 1.72321595 103.00000000 -535.442944391320
0.96446195 1.74773622 102.89769501 -535.474904293654
0.96446195 1.66598753 108.91407896 -535.475301497240
0.96562428 1.68888476 100.23154051 -535.476076100105
1.03451058 1.60380827 103.00000000 -535.468508528881
0.96446195 1.75072609  71.27584008 -535.447125605993
0.96446195 1.60949223 104.37079153 -535.473210911798
0.91294101 1.68888476 107.13455655 -535.473064363426
1.00658767 1.68888476 107.25417412 -535.474261960990
0.70178476 1.71829738 103.00000000 -535.348940610770
1.06028045 1.68888476  63.59813489 -535.420291015596
0.90231259 1.68888476 116.28198619 -535.467394963098
1.44401301 1.66951658 103.00000000 -535.395420938304
0.96446195 1.73027836 101.86300788 -535.475631625478
1.22823220 1.71959675 103.00000000 -535.439472239854
1.15003807 1.68888476 107.87371174 -535.454371013211
0.96446195 2.07070578 107.32090292 -535.441135235408
0.96446195 1.71161709 127.48668089 -535.459863161312
0.72655220 1.63443274 103.00000000 -535.378753702067
0.81776617 1.61776891 103.00000000 -535.445513936779
0.90722119 1.63045819 103.00000000 -535.471240748403
0.91366944 1.68888476 113.82589684 -535.470402049408
0.91183356 1.68888476 145.80465100 -535.432342817411
1.04011270 2.16986785 103.00000000 -535.428167267077
0.84360429 1.84223019 103.00000000 -535.449433608981
1.26734004 1.73711352 103.00000000 -535.430878848732
0.96446195 1.72041225 145.10809102 -535.434058955190
1.06721379 1.78863953 103.00000000 -535.465100614273
0.96446195 1.49947930 135.59642501 -535.437758708675
1.10158033 1.68888476  77.84529523 -535.444783437535
0.96446195 1.82522280 102.91448726 -535.469783218148
1.18375683 1.68888476 126.09160145 -535.434756032233
1.03990987 1.43524433 103.00000000 -535.424333007078
1.02733648 1.68888476 110.80980409 -535.471346223421
0.70092094 1.68888476  84.68974795 -535.336607217067
1.10014403 1.72050699 103.00000000 -535.463407371546
0.84027246 1.68888476  70.50855718 -535.418890391127
0.96446195 1.91698100 105.97098020 -535.459695370098
0.74135461 1.68888476  98.21770649 -535.393923274344
1.13290516 1.68888476 135.61566350 -535.431860596081
0.73980667 1.72311102 103.00000000 -535.392468163080
1.26741875 1.62220165 103.00000000 -535.429254657638
0.96446195 1.71630219 101.55817289 -535.475991488607
0.95385636 1.96473422 103.00000000 -535.455221397206
1.19156114 1.68888476 122.73202864 -535.436779014065
1.16469385 1.68888476 100.91527286 -535.452303308139
1.18539558 1.68888476  79.93056191 -535.433523338684
0.96446195 1.63412477 132.27832920 -535.455542958231
1.03025065 1.68888476  98.22308813 -535.472242202397
0.71479938 1.71699067 103.00000000 -535.365518472905
0.84522257 1.68888476 110.23285986 -535.457349585604
0.95452387 1.69343257 103.00000000 -535.476196219816
0.76532257 1.88109503 103.00000000 -535.402256342598
0.96446195 1.93559245  76.04671309 -535.450075817949
0.96446195 1.97967777 111.71677087 -535.449296976613
1.01146715 1.68888476 127.36922501 -535.458983475336
0.96446195 1.57328287  88.70687661 -535.457620861817
1.16062320 1.68888476 121.27069458 -535.444106387791
1.07444425 2.07900986 103.00000000 -535.434396331312
1.11721086 1.68888476  72.66925506 -535.433838830077
0.96446195 1.52489862 126.62148993 -535.452319679993
0.96446195 1.54881686 138.48408104 -535.442318870251
1.02364694 1.68888476 104.90470070 -535.473351587492
1.11474522 1.68888476 118.82151225 -535.454418606191
0.96446195 1.64769859  95.34952103 -535.472961458136
0.96446195 1.68621320  87.17937193 -535.468328574238
1.11607813 1.68888476  84.46851401 -535.451256959237
0.96446195 1.92701589  98.76516201 -535.460576310470
1.01931029 1.64377182 103.00000000 -535.472803652476
1.08701666 1.68888476  79.68704934 -535.449584088423
1.29316457 1.54657934 103.00000000 -535.414524229070
1.12277160 1.68888476  69.36257864 -535.426762945604
1.20481966 1.68888476  81.39738934 -535.431638392086
0.96446195 1.68977182  77.09021777 -535.454410189263
1.06716198 1.68888476  70.04377873 -535.434979799100
1.30179044 1.68888476  93.41824875 -535.422033354080
0.96446195 1.69870891 123.35124925 -535.464993267381
0.96446195 1.92128539 105.43523801 -535.459441985022
1.10903518 1.68888476  78.50616090 -535.444668172541
0.96446195 1.70395953 114.23758439 -535.472403071451
0.96446195 1.75198162 119.27171861 -535.466171889070
0.96446195 1.74796859  84.78920756 -535.467047795465
0.96446195 1.73310053 104.64173031 -535.475273104349
0.96446195 1.84605993 118.22457437 -535.459071026047
0.96446195 1.57460901 109.14901392 -535.469453019919
0.97491916 1.68888476 125.73712345 -535.462653168230
1.02247540 1.68888476  60.39605778 -535.412855626828
0.96446195 1.84520140  80.13156785 -535.459626274684
0.84422668 1.68888476 103.03048642 -535.458374188886
1.01095992 1.68888476 102.35861448 -535.474500380101
0.75201562 1.68888476  96.89108523 -535.403214267310
0.97048750 1.52092027 103.00000000 -535.458787244292
1.11054181 1.77841878 103.00000000 -535.459301132043
1.10552863 1.68888476 105.95848279 -535.462572492527
0.96446195 1.78108988  84.51644613 -535.466296145376
1.08779699 1.66573730 103.00000000 -535.465333570786
0.74522380 1.86472214 103.00000000 -535.386697112129
0.96446195 1.67121298  72.30697843 -535.442939640956
0.96446195 1.69280758  92.47519653 -535.472992616230
0.96446195 2.00183476  86.31689860 -535.451145596636
0.83895340 1.95842614 103.00000000 -535.435108711133
1.21755861 1.68888476 108.93698567 -535.440867558392
0.96446195 1.84783178 109.59199921 -535.465181484476
0.96446195 1.72556489  96.42881084 -535.474935063601
0.96446195 1.98347357 125.16144919 -535.436738479562
0.96446195 1.94357385 125.02157590 -535.441407259544
0.96446195 2.11191466  85.87599909 -535.439427660486
0.96446195 1.96713668 119.74374894 -535.444236594528
0.96346635 1.81973754 103.00000000 -535.470215017508
1.00419311 1.61198491 103.00000000 -535.471841986755
0.84781629 1.68888476 119.80050747 -535.452202910729
1.34286253 1.54806251 103.00000000 -535.404717072374
1.06589150 1.68888476 108.62612485 -535.467768190180
1.31811315 1.68888476  82.83447736 -535.410195705874
0.75161873 1.68888476  78.41514863 -535.382590716344
1.44504725 1.59735260 103.00000000 -535.391445330452
0.96446195 1.94599513  98.37118294 -535.458567160057
1.16604673 1.89424411 103.00000000 -535.439969299353
1.00031668 1.57526281 103.00000000 -535.467946304920
0.96446195 1.58380540  81.35878952 -535.447881849204
1.11663509 1.68888476 111.36274258 -535.458959893457
0.88783056 1.68888476 137.18209236 -535.441852068456
1.13572503 1.82588562 103.00000000 -535.451692167466
1.09916429 1.64748449 103.00000000 -535.462956326796
1.05180238 1.84903065 103.00000000 -535.462277677961
0.99450899 1.68888476  89.48484247 -535.469964887416
0.99496317 1.80913944 103.00000000 -535.470377123985
0.81526699 1.95762233 103.00000000 -535.424963494567
1.15103825 1.68888476  99.64280012 -535.454694376003
0.96491781 1.67135836 103.00000000 -535.476161771503
0.81472831 1.68888476  64.72058033 -535.391280501957
0.77345432 1.68888476  98.17058879 -535.420804659081
0.96446195 1.82747295  59.35729151 -535.423043128337
0.85382286 1.68888476  97.51211800 -535.460460195788
0.96446195 1.83331308  78.54385066 -535.458408256722
1.33766955 1.68888476  85.85878176 -535.409101395932
0.96446195 1.59692753  97.64042743 -535.469720422521
0.96446195 2.06069161  90.29763153 -535.445773397023
0.96446195 1.73730892 132.75171581 -535.451610369788
1.10595161 2.00929630 103.00000000 -535.437871478289
0.83971957 1.44071601 103.00000000 -535.412606813674
0.96446195 1.55746830 144.52159840 -535.435001563865
1.01982148 1.68888476  82.38509535 -535.460687559873
0.96446195 1.73524695 116.75474981 -535.469294088839
0.96446195 1.61518859  98.95108370 -535.472322737548
0.96446195 1.89606064  90.04393448 -535.462701818045
0.92051207 2.09011000 103.00000000 -535.438234326613
1.06346344 1.68888476 113.69646990 -535.465762920762
1.24093147 1.59834037 103.00000000 -535.432631660804
1.17836859 1.65470074 103.00000000 -535.449086960542
0.96446195 1.72543836 143.73525028 -535.435916912315
1.17752246 1.68888476 127.10124587 -535.434803367522
0.96446195 1.55369855 110.30947501 -535.466325693256
0.96446195 1.81031798  67.77054772 -535.441902551476
0.89672909 1.68888476 128.99193216 -535.454229428283
0.80470600 1.68888476 117.99662644 -535.435376960667
1.03256918 1.68888476 128.78589657 -535.455416372984
1.10674335 1.68888476  94.17421697 -535.460568201712
0.75579918 1.68888476 110.99830178 -535.406283741506
1.00259815 1.58640914 103.00000000 -535.469275656290
0.93123743 1.68888476 147.91789762 -535.430660688565
1.15687354 1.65110123 103.00000000 -535.453056549045
0.96446195 1.54601075 109.65656342 -535.465125128222
0.88372967 1.68888476  89.46816640 -535.462972708214
1.14948000 1.68888476  95.55977800 -535.453798540607
1.03092308 1.68888476  83.51303603 -535.461212299848
1.04405702 1.68888476  84.23096048 -535.460798326840
0.96446195 1.60068162 101.25890536 -535.471747288471
1.14616230 1.94481632 103.00000000 -535.438336558919
1.05561204 1.63505537 103.00000000 -535.468520651865
0.96446195 1.83435555 139.41654992 -535.433311551899
1.37121143 1.62685684 103.00000000 -535.408167228157
0.88672000 2.03611008 103.00000000 -535.439463077609
0.94537973 1.52806813 103.00000000 -535.460242510320
1.40324561 1.68888476  93.44558567 -535.401050253051
0.96446195 1.80118802  71.24624301 -535.448331653469
1.13298904 1.68888476  78.76485596 -535.441242873810
1.44097423 1.68888476  98.66816082 -535.395562445618
0.81854562 1.50379613 103.00000000 -535.426961442941
0.96446195 1.72953081  76.66885764 -535.456005770856
0.96446195 1.61596209  68.53193840 -535.423957913782
0.96446195 1.77709363  82.88183515 -535.464774725097
0.96446195 2.09455168  95.38566351 -535.441995911255
0.81767784 1.68888476 122.72586315 -535.437705916426
1.14513811 1.68888476  94.20487628 -535.453979775077
1.50086580 1.68888476 109.40853141 -535.384144157471
0.70623880 1.68888476 100.52473145 -535.355234604578
1.10445515 1.61488748 103.00000000 -535.460051426620
1.00752498 1.98974436 103.00000000 -535.451349077171
0.96446195 1.41217047 107.01358521 -535.419663159268
0.96446195 1.69127444 126.05276373 -535.462348981621
0.96724651 1.68888476 134.00430232 -535.452440165834
0.96446195 1.76242078  97.73107945 -535.474083745861
0.89748897 1.67509919 103.00000000 -535.471384698816
0.83013656 1.98318537 103.00000000 -535.428648072183
1.05641791 1.84601870 103.00000000 -535.462001530566
0.96446195 1.86730460 111.02650261 -535.462388665661
1.06614104 1.68410083 103.00000000 -535.468688957775
0.96446195 2.07031619 104.87918212 -535.442318047857
1.17708510 1.68888476 110.49106383 -535.448321717485
0.81658427 2.10204449 103.00000000 -535.408185377228
1.01523126 1.68888476 127.72846470 -535.458266405046
0.79966262 1.68888476 109.84975341 -535.437262800746
0.80919746 1.68888476  66.05285777 -535.392586315523
0.83303809 1.62733090 103.00000000 -535.452649194281
1.06357118 1.52023609 103.00000000 -535.451202735404
0.86450002 1.68888476  62.99807939 -535.405078677577
0.96446195 1.61563960  97.69815535 -535.471774053698
1.39880032 1.68888476  97.42119670 -535.403584632382
0.96446195 1.41235601 110.88688062 -535.421145036785
0.96446195 1.84829987 107.55111907 -535.466153120010
1.11608482 1.72649779 103.00000000 -535.460660359940
1.39759717 1.72520680 103.00000000 -535.404192491952
1.03871293 1.68888476 125.90183531 -535.458159180115
0.96446195 1.65478491 101.20597588 -535.475527513782
1.02376223 1.68888476 125.24376942 -535.460370244406
0.96446195 1.54846536 116.18165024 -535.463661593729
0.79333815 1.83631621 103.00000000 -535.426254936184
0.96446195 1.83381532  92.31216464 -535.468492272517
0.96446195 1.53426239  87.29927649 -535.446523462286
1.29206393 1.68888476 105.50642116 -535.426273613441
1.05626567 1.68888476  81.32877607 -535.455776900553
0.97672991 1.68888476 107.58637610 -535.475546047093
0.96446195 1.53040089  84.20115751 -535.439995592483
1.02424265 1.63888768 103.00000000 -535.472126642276
1.05897994 1.68888476 124.36787444 -535.457452954006
0.96446195 1.92003037 121.77807743 -535.447603262475
1.01822347 1.68888476 120.93547700 -535.465197489026
1.37823159 1.68888476 117.81977811 -535.403198523621
0.96446195 1.62091769  97.22890190 -535.472013650840
1.10592183 1.68888476  71.97310747 -535.434146737159
1.26817000 1.71216113 103.00000000 -535.431321753534
0.95759554 1.68888476 128.92749274 -535.459035930989
1.25123901 1.68888476 106.94979881 -535.434512135897
1.06094041 1.68888476  93.48836062 -535.466838826068
0.90957544 1.68888476  88.65207494 -535.466462547310
0.95885000 1.68888476  78.62352204 -535.456881284321
1.04315346 1.79547360 103.00000000 -535.467537623994
0.96876228 1.68888476  96.81198424 -535.475140683804
1.00320415 1.82984866 103.00000000 -535.468271150820
0.96446195 2.04135274 119.83218928 -535.435606632206
1.08258346 2.10212189 103.00000000 -535.430664272503
0.83639917 1.68888476 134.42204880 -535.431758901041
0.96446195 1.56786999 137.58819901 -535.445462879254
0.96446195 1.83990303  61.37996990 -535.428568015838
0.99456759 1.68888476 132.72623872 -535.453314212070
1.26516957 1.68888476  88.37600556 -535.426384703504
0.89755001 1.66208421 103.00000000 -535.471174397057
0.96446195 2.07807803 106.09378300 -535.440869371476
0.84266100 1.68888476 131.99142145 -535.437222536269
1.25331325 1.56936281 103.00000000 -535.426461595781
0.98695933 1.68888476 115.01461932 -535.471809740426
0.96446195 1.61340374 146.29762199 -535.435465830075
0.96446195 1.77437256 143.00569052 -535.433227901036
1.03244247 1.69630542 103.00000000 -535.472634022225
0.96446195 1.97237450 119.25969046 -535.444087325087
0.83016281 1.68888476  67.40098370 -535.406473964042
0.81794910 1.71974667 103.00000000 -535.447203464766
1.10591104 1.68888476 111.59440499 -535.460623988449
1.04733088 1.68888476 131.55552458 -535.450288969748
0.96185575 1.45193017 103.00000000 -535.436306602176
1.01708933 1.68888476  92.36711181 -535.470707213800
0.96446195 1.69926107  93.88017300 -535.473932797078
0.87618213 1.53000888 103.00000000 -535.452448370034
1.07996540 1.63340397 103.00000000 -535.465139336146
1.15827149 1.49440883 103.00000000 -535.428825416445
0.96446195 1.85167885  91.68602478 -535.466954964714
0.96446195 1.81254528  92.58254790 -535.470009463349
1.15163943 1.65931134 103.00000000 -535.454326734007
1.32803900 1.68888476 120.54685583 -535.411138868511
0.96446195 1.99515531 123.25579647 -535.437487114022
1.17882247 1.68888476 102.88493085 -535.449664454967
1.23770693 1.75355970 103.00000000 -535.436409145315
1.03422582 1.68888476  81.71196837 -535.458576056061
0.96446195 1.94531834  79.87604962 -535.452769700123
0.99923865 1.89980568 103.00000000 -535.461808493971
0.93045909 1.58763886 103.00000000 -535.469686087460
0.96446195 1.74085701 103.50513303 -535.475133230715
0.98937885 1.68888476 117.45332350 -535.469986958825
1.07298476 1.44167284 103.00000000 -535.423235665682
1.17337594 1.62072111 103.00000000 -535.448170289604
0.96446195 1.62847345 107.19008640 -535.474477861223
0.96446195 1.60882531  60.51910141 -535.394694833661
1.03450953 1.56365526 103.00000000 -535.463357906010
1.10509041 1.68104555 103.00000000 -535.462895299547
1.48791785 1.68888476 111.27791004 -535.385875941902
0.83975094 1.51421255 103.00000000 -535.438305535634
0.96446195 1.61914578  75.54423324 -535.442582854403
0.95046641 1.71563524 103.00000000 -535.475790995670
1.41392874 1.68888476  91.22738148 -535.397620648121
0.96446195 1.46181530  90.88024026 -535.426786323766
0.96446195 1.77607592 114.76522495 -535.468142878243
0.96446195 2.15466562 117.67796904 -535.425065033538
0.90459393 1.68888476  75.46597807 -535.446577285934
0.90660057 1.68888476 100.88694331 -535.472598813641
1.02826379 1.73705279 103.00000000 -535.472174792556
1.21375089 1.54315788 103.00000000 -535.430032221208
0.96446195 1.79253002 106.13553325 -535.471498985233
0.96446195 1.73985011  59.20777573 -535.415527243544
0.96446195 1.68690912  89.93759556 -535.470940880149
0.96446195 1.84700361 131.38417499 -535.443898644593
1.25572477 1.68068056 103.00000000 -535.434011924566
0.96446195 1.83942172  78.89188083 -535.458562395484
0.96446195 1.74290667  76.78981243 -535.456658953436
0.96446195 1.71344974  99.23533120 -535.475805919389
1.21475630 1.68888476  79.27280027 -535.427044307667
0.77423206 1.56689190 103.00000000 -535.414731270541
0.96446195 1.72729621 108.43133133 -535.474474807921
0.96446195 2.07426447 116.07962854 -535.435055681565
0.96446195 1.80908427 103.89632625 -535.470875146143
0.96098686 1.63824577 103.00000000 -535.475039335272
0.96446195 1.91527216  83.18634670 -535.457599836358
1.15213207 1.63508145 103.00000000 -535.453153509526
0.73930038 1.82380741 103.00000000 -535.385072158660
0.98043882 1.68888476 117.89883301 -535.469969548586
0.96446195 1.67925684  94.05348046 -535.473622172340
0.84533202 1.68888476  98.60753635 -535.458071242851
1.20127670 1.55587938 103.00000000 -535.434844601701
0.96446195 1.66147093 121.90168742 -535.467168372399
1.09898613 1.68888476 127.66461128 -535.448020771401
0.91722772 1.71158586 103.00000000 -535.473733547068
1.09691033 1.89672998 103.00000000 -535.451603050685
1.00142561 1.68888476 105.79198301 -535.474897246937
0.91520379 1.41559623 103.00000000 -535.416569942559
1.18934827 1.54590625 103.00000000 -535.435391111818
1.15771371 1.68888476 103.31226945 -535.453689971082
0.96446195 1.60769783  62.51892846 -535.402100561707
0.96678581 1.68888476 116.18806107 -535.471483508437
1.15286850 1.69090126 103.00000000 -535.454608664937
0.96446195 1.66340420 121.32669397 -535.467686638170
1.09337889 2.01680108 103.00000000 -535.438917704300
0.96446195 1.82319152  58.96106478 -535.421776935351
0.85975736 1.88432440 103.00000000 -535.450403230420
0.96446195 1.65700905 125.78839677 -535.463284875313
1.07290283 2.09615543 103.00000000 -535.432637673439
0.96446195 1.84292580  76.07738558 -535.455059861890
0.87839058 1.62216753 103.00000000 -535.465817948715
0.96446195 1.88818202  79.29091604 -535.456407004114
0.96446195 1.82972637 141.67831084 -535.430150232373
0.96446195 1.56458290 129.41587978 -535.455091999329
0.95551938 1.77497920 103.00000000 -535.473341715388
1.21267571 1.66796604 103.00000000 -535.442657254009
1.10474598 1.85587660 103.00000000 -535.454323844027
1.01797306 1.77411550 103.00000000 -535.471288996407
0.96446195 1.73699184 118.22761361 -535.468002480771
1.09736276 1.68888476 135.06673116 -535.438567734483
0.96446195 1.47287751 105.06286827 -535.445518138941
0.69242663 1.68888476  89.49326357 -535.330200395681
0.96723788 1.68888476 112.56709227 -535.473707888062
1.21063393 1.47166170 103.00000000 -535.411407340714
0.77116258 1.68888476  77.32400037 -535.396398523289
1.08032851 1.78820756 103.00000000 -535.463330604032
1.07007876 1.96898492 103.00000000 -535.447606003695
0.96446195 1.44569047 104.71964644 -535.434686481563
0.91709738 2.02311355 103.00000000 -535.445783709108
0.96446195 1.69033885  70.56884516 -535.441126797301
1.06064278 1.68888476 121.73567865 -535.459895285939
0.96446195 1.70157578  96.07862899 -535.474976259073
0.97637983 1.68888476  95.66154272 -535.474566733442
0.96446195 1.63832885  84.16458615 -535.461007723371
0.80952155 1.68888476  76.80831640 -535.419354428480
0.96446195 1.48234149  78.91460305 -535.410460073335
0.96446195 1.51912909  96.84656330 -535.454344310723
0.91105455 1.71698292 103.00000000 -535.472916183965
0.96446195 2.00981047  85.10969329 -535.449875649583
0.82019893 1.68888476 119.79972164 -535.441516246358
0.96446195 1.61641032  93.29296519 -535.468911724714
0.96446195 1.71532608 119.17002334 -535.468286737083
0.81154231 1.57193622 103.00000000 -535.437707263811
0.82817160 1.68888476 100.51741613 -535.452040487665
1.23431736 1.68888476 127.67491316 -535.422941498303
0.96446195 1.73800509 102.68574638 -535.475327168071
1.39196639 1.68888476 120.37954747 -535.398545000127
0.95459184 1.68888476  78.49233018 -535.456545461430
1.22418084 1.68888476 117.84178859 -535.434571858692
0.96446195 1.69814739  96.62870433 -535.475170166491
0.84261587 1.68888476  64.54586609 -535.402826166679
1.02408774 1.68888476  84.32376893 -535.462783564589
0.95969103 1.78293190 103.00000000 -535.472904112494
1.00743054 1.63521818 103.00000000 -535.473278448008
0.97486898 1.74399925 103.00000000 -535.474977724157
0.96446195 1.75825682  67.43785244 -535.439373448080
1.07275905 1.68888476 118.17206744 -535.461402351964
0.80378282 1.43426095 103.00000000 -535.393867932296
0.96446195 1.77359061  93.24990927 -535.472325745625
1.14457295 1.68888476 106.78516782 -535.455654379272
0.96446195 1.59989175  88.02855704 -535.461274333152
0.94369709 1.68888476  97.04313252 -535.474792951413
0.96446195 1.43132855  69.21493040 -535.350568477065
0.91148055 1.56019996 103.00000000 -535.464074555461
1.38800109 1.70992341 103.00000000 -535.406463869606
0.96446195 1.71681598  94.55462780 -535.474314254349
1.00148119 1.68888476 110.63155188 -535.473443265676
1.23400555 1.61211476 103.00000000 -535.435358808708
0.81629401 1.81831823 103.00000000 -535.440290418845
0.95035277 1.64198802 103.00000000 -535.475062312946
0.82112525 1.68888476 108.58481972 -535.448468358073
0.82751954 2.25191835 103.00000000 -535.396718550323
0.79427575 1.68888476  69.44187154 -535.393839772485
0.96446195 1.90741658  83.07782345 -535.458150227704
1.05066099 1.68888476 113.79280825 -535.467308368860
0.90680716 1.68888476  86.60052968 -535.463992275569
1.04235994 1.80708289 103.00000000 -535.466790635003
0.86192871 1.68888476 128.88044514 -535.447026298650
0.96446195 1.92297637  83.80004468 -535.457360737689
1.10853545 2.04260291 103.00000000 -535.433643843472
0.75180888 1.87640308 103.00000000 -535.391459298739
0.96446195 1.71674242  76.68789180 -535.455448874786
0.79738976 1.68888476  99.38003286 -535.436637835385
0.96446195 1.85864190  98.35989025 -535.467397409949
0.99132333 1.71246602 103.00000000 -535.475449485493
1.53204863 1.70956778 103.00000000 -535.379076219648
1.18839131 1.68888476 108.55417222 -535.446830895219
0.96446195 1.63459538  98.03565072 -535.473483365483
1.14131039 1.89256755 103.00000000 -535.444662807775
0.83767630 1.68888476 114.62057078 -535.452470081357
1.29900016 1.61530212 103.00000000 -535.422170273561
0.75356001 1.68888476  97.64418030 -535.404858758080
1.00031660 1.68888476 125.26659210 -535.462124760523
1.27319378 1.63772637 103.00000000 -535.429029053368
1.18827332 1.68888476  98.20852735 -535.447267111459
0.84378347 1.95271732 103.00000000 -535.437556248362
0.92766399 2.04364421 103.00000000 -535.444419331007
0.96446195 1.81420462  77.90759553 -535.458240107043
0.96446195 1.68940299  89.94789323 -535.471031367010
0.96446195 1.53842133 118.92282627 -535.460571901687
0.99372162 1.68888476  81.63021186 -535.461170290062
0.96446195 1.74270044  70.17478257 -535.444474003696
0.95366968 1.96319179 103.00000000 -535.455393470079
0.77099895 1.68718674 103.00000000 -535.419902842129
0.81855326 1.75441111 103.00000000 -535.445969914549
1.08124455 1.68888476 140.54910665 -535.432824045116
1.02221083 1.68888476 120.36208803 -535.465374230765
0.96446195 1.46318107  87.79353989 -535.421954642074
1.15648119 1.68888476  93.89392068 -535.451738554898
0.87374585 1.69406212 103.00000000 -535.466805025787
1.09011070 1.68888476  86.83377907 -535.457735597318
0.99724084 1.68888476 102.71912926 -535.475380604167
1.15056554 1.55089937 103.00000000 -535.443697918056
1.09921930 2.02836346 103.00000000 -535.436716863392
0.98174132 1.95361479 103.00000000 -535.456567313125
0.96446195 1.94442433  76.80023588 -535.450184727169
1.00715154 1.68888476  71.36310613 -535.442326249605
1.14390492 1.84975775 103.00000000 -535.448230632740
0.96446195 1.77389792  79.10307575 -535.460369771081
0.96446195 1.61414711 126.74384370 -535.461512506219
0.96446195 2.00191438 108.18729032 -535.448803489175
0.96446195 1.44149320  72.99777361 -535.371187768633
0.96446195 1.63965544 106.73475317 -535.475077509669
1.07810344 1.57603484 103.00000000 -535.459781752508
0.76827354 1.63770446 103.00000000 -535.416983760657
0.84846908 1.80941828 103.00000000 -535.454006572235
1.41902355 1.73410142 103.00000000 -535.399630009098
0.94130620 1.68888476  78.85506965 -535.456560254180
0.85920311 1.68888476 115.14790101 -535.459152804055
0.95426552 1.68888476 111.02803358 -535.474378892938
0.96446195 1.62972037  91.99004374 -535.469138996687
0.93101247 1.68888476 131.95832660 -535.454218450095
0.96446195 1.68771931  96.08104423 -535.474840205653
0.96446195 1.80800700  73.42691347 -535.451986899294
0.96446195 1.96335291 126.69158664 -535.437242234583
1.17823976 1.64995001 103.00000000 -535.448927158938
0.96865794 2.14795595 103.00000000 -535.434181602592
1.32715072 1.74993681 103.00000000 -535.417856425397
1.18953175 1.63596909 103.00000000 -535.446026723486
0.96446195 1.62409494  67.59817285 -535.422944494636
0.96446195 1.94789776  82.97800799 -535.454707791956
1.20358088 1.64316334 103.00000000 -535.443610172126
0.96446195 1.84016058  82.47211250 -535.462111028191
1.33492585 1.68888476 118.63446006 -535.411289856354
1.39410885 1.80750687 103.00000000 -535.400705741788
0.96446195 2.16141485 111.55380514 -535.428537055977
1.11350460 1.62037759 103.00000000 -535.459000698333
0.96446195 2.01491375 104.19547423 -535.449129193121
0.93125953 1.68888476  89.80094030 -535.469661266780
0.96446195 1.68830611  73.82264589 -535.448032508263
0.96446195 1.55960500 112.98672281 -535.466585077187
0.96446195 1.62913582  72.76097738 -535.437838982844
1.37548007 1.68888476 112.88130103 -535.406720756209
1.03166123 1.68888476 112.48319391 -535.470119469505
1.09489372 1.61932790 103.00000000 -535.461927195930
1.06703050 1.57763650 103.00000000 -535.461545990339
0.96446195 1.93294320  99.19405574 -535.459882134038
0.92984640 1.61834507 103.00000000 -535.472636375340
1.53860471 1.66294673 103.00000000 -535.378115499388
1.07006024 1.68888476 103.85439909 -535.468148421228
0.96446195 1.79035206  64.47788305 -535.434147188191
1.09679297 1.68888476 112.67002600 -535.461530240095
1.07980837 1.44448710 103.00000000 -535.423534853109
0.89228505 1.97845471 103.00000000 -535.447407567120
1.11325493 1.68888476 130.35272251 -535.442396880006
0.96446195 1.88508809 107.05578228 -535.462663001368
0.91980853 1.53977361 103.00000000 -535.461175542068
1.00609713 1.68888476  92.60366320 -535.471643016890
1.14664526 1.68888476  78.03238608 -535.437889307753
0.96446195 1.75939652  82.23938591 -535.464268711288
1.07560128 1.68888476 134.97416915 -535.441946963716
0.96446195 1.89046522 114.89592207 -535.457200064267
1.05428059 1.68888476 107.11038772 -535.469685242618
0.98428260 1.68888476 102.42764906 -535.475947483157
1.01612753 1.68888476  92.96607843 -535.471158853840
0.96446195 1.56541082  79.02591182 -535.438958804159
1.09635982 1.68888476  92.67495054 -535.461378875809
1.44785370 1.68888476 119.94263944 -535.388283420724
0.96446195 1.75978974  84.48673324 -535.466660090762
0.96446195 1.51062098 143.13632996 -535.430477250394
0.73767924 1.68888476 105.76968801 -535.391093413655
1.04410132 1.68888476 106.28054869 -535.471064189811
0.78334597 1.68888476  93.04746102 -535.425047517145
1.11485811 1.83122617 103.00000000 -535.454823982683
0.86013787 1.68888476 117.84620199 -535.457515613395
0.86974990 1.68888476  79.29821815 -535.446635461747
0.96446195 1.49658016  79.61940251 -535.418258192230
1.09358235 1.90525874 103.00000000 -535.451232441747
0.95717675 2.05433696 103.00000000 -535.444801361533
0.74739849 1.72609871 103.00000000 -535.399524787726
0.96446195 1.60485730 118.31758927 -535.468464884827
0.96446195 1.83630752  79.50048753 -535.459360314278
0.96446195 1.80964544 122.44773916 -535.458441085461
1.20727928 1.68888476 113.04560374 -535.441127925287
1.07195734 1.80622075 103.00000000 -535.463250018050
0.80792139 1.68888476  74.41083357 -535.413567173470
1.32195139 1.68888476 111.95553955 -535.418075224736
1.02099043 1.68738223 103.00000000 -535.473705522585
0.95051806 1.68888476 106.68003688 -535.475726668382
0.89220863 1.68888476  83.40426246 -535.457769179416
1.04418002 1.68888476 132.27709876 -535.449693258061
0.92303061 1.89182892 103.00000000 -535.461416505592
0.96446195 1.57329739 127.31866451 -535.458187424546
1.13728471 1.68888476 108.70486901 -535.456433072687
0.96446195 1.96275016 124.44540509 -535.439883020335
0.96446195 1.59457879 135.85333449 -535.449643889640
0.96446195 1.76946639  87.37545320 -535.469024621268
1.03731324 1.94628807 103.00000000 -535.453904906103
0.82919631 1.68888476  69.75375075 -535.412506654185
0.78713819 1.93172258 103.00000000 -535.412119557511
0.93599096 1.68888476 108.47358590 -535.474657222611
0.90586026 1.68888476  99.16841219 -535.472174323651
1.08244067 1.68072817 103.00000000 -535.466384629118
1.23419707 1.57858426 103.00000000 -535.431667805835
0.96446195 2.13152387  88.31044277 -535.437777304552
0.95854294 1.68888476  89.40461638 -535.470494939100
0.75041096 1.68888476 104.22680540 -535.403177681466
1.38293652 1.68888476 108.43028024 -535.406921197150
1.05193160 1.68275368 103.00000000 -535.470477044318
1.06741148 1.68888476 119.92385889 -535.460664936145
0.84758072 1.97714295 103.00000000 -535.435992088829
0.99860030 2.00392857 103.00000000 -535.450182613226
0.88030066 2.16005560 103.00000000 -535.423616840357
0.81067517 1.68888476  61.13329469 -535.377045040570
0.96446195 1.70635090 124.27963252 -535.463723778366
1.04336634 1.50466433 103.00000000 -535.449602137906
0.96446195 1.86553874  94.49898160 -535.466517210988
1.07131112 1.68888476 109.11162955 -535.466869960252
1.02071408 1.85298165 103.00000000 -535.465000782370
0.96446195 1.76055341 101.77478691 -535.474379428713
0.96446195 1.77285938  75.26567574 -535.454820609232
0.96446195 1.70005067  75.67735221 -535.452620325674
1.11046923 1.82848015 103.00000000 -535.455767323639
0.96446195 2.04857309 108.60457420 -535.443055691888
0.96446195 1.72594208  76.72700685 -535.455952058442
0.96446195 1.75323847 108.99452610 -535.472994167459
0.96446195 1.69284944  87.07399001 -535.468487753689
0.90551307 1.68888476  87.06822575 -535.464321389418
0.93965624 1.71832898 103.00000000 -535.475300377357
0.96446195 1.69059352  82.06978035 -535.462350850919
0.96446195 1.80813111 114.32062797 -535.465861046472
0.76603184 1.79453444 103.00000000 -535.411093487961
0.96446195 1.80282350 141.44898455 -535.433146071206
0.96446195 1.79633253 123.98683896 -535.457968975100
1.40645799 1.68888476 100.69772077 -535.402759631255
0.82312657 1.68888476 116.50853334 -535.445364447874
1.08545506 1.99284293 103.00000000 -535.442808114713
1.05175279 1.68888476 126.44638232 -535.456056999035
1.20560701 1.65119220 103.00000000 -535.443559027374
0.93479944 1.57141445 103.00000000 -535.467801176560
0.96446195 1.61905230 135.70042479 -535.450788420634
0.96446195 1.77535377 112.71784237 -535.469582365525
0.98042684 1.80864398 103.00000000 -535.470936643962
0.89579934 1.70450092 103.00000000 -535.471021162559
0.96446195 1.86102987  84.90680517 -535.462796112635
0.90021606 1.68888476 132.33743635 -535.450525535571
0.74561436 1.95241156 103.00000000 -535.377021926696
0.90206326 1.68888476 136.08853589 -535.445671003687
1.32598427 1.68888476  82.91840973 -535.408651320618
1.22972459 1.68888476 106.76582552 -535.438991529795
0.95104189 1.79244798 103.00000000 -535.472079370274
1.08751011 1.68888476  81.17738022 -535.451580047084
0.71571723 1.83836238 103.00000000 -535.357950563410
1.02067603 1.74889756 103.00000000 -535.472372044730
0.72950850 1.86669527 103.00000000 -535.370697000018
1.34852352 1.68888476 109.47999619 -535.413596970042
0.96446195 1.81463109 116.74297449 -535.463389074571
0.88295488 1.58967548 103.00000000 -535.463776525507
0.80659737 1.68888476  72.24526320 -535.407927440850
0.96446195 1.69935512 100.62340731 -535.476136379869
1.07814222 1.60175638 103.00000000 -535.462868534852
1.39028025 1.68888476 112.28726097 -535.404045029754
0.83433282 2.13757494 103.00000000 -535.411921263971
0.96446195 2.04827696 121.80349006 -535.432965013538
0.99280780 2.14162832 103.00000000 -535.434500023193
0.96446195 1.81412868 132.71503072 -535.445310271255
1.12220172 1.74447787 103.00000000 -535.459028830263
0.97315550 1.79369393 103.00000000 -535.472169566021
1.17229094 1.68868372 103.00000000 -535.450926427617
0.96446195 1.92862420 118.43433042 -535.449899745418
0.96446195 1.72509186  85.21035264 -535.467366653293
0.97362383 1.68888476 109.71235313 -535.474924307883
0.78603554 1.68888476 100.37363916 -535.429959433965
0.96446195 1.91745982  94.80110524 -535.461657776895
0.95245172 1.53577005 103.00000000 -535.462122781169
0.87780413 1.71797244 103.00000000 -535.467293495601
1.02704164 1.82670680 103.00000000 -535.466758237134
0.87534421 1.60276322 103.00000000 -535.463552781821
0.96446195 1.69561642 112.24964407 -535.473758268583
0.98778595 1.96573574 103.00000000 -535.455024643514
0.96446195 1.66841541  95.61670330 -535.474113398911
0.96446195 1.65013448 103.08912827 -535.475591086349
0.94357551 1.98225352 103.00000000 -535.452777648573
0.74023332 1.74524288 103.00000000 -535.391867726688
0.96446195 1.90632896 101.18289610 -535.462377744071
0.96446195 1.80174211 113.93735609 -535.466686385217
0.84339167 1.68888476 121.11685643 -535.449558223922
0.89770306 1.68888476  78.27965555 -535.450756897522
0.96446195 1.86567167 119.32725473 -535.456018853416
0.96446195 1.95351512 109.73905212 -535.453610001201
0.96446195 2.04430926  94.21051651 -535.447795671452
1.03181650 1.86696690 103.00000000 -535.462715053577
0.96446195 1.85086589  81.49561055 -535.460660497207
1.24219386 1.82943691 103.00000000 -535.430689713746
0.85921765 1.82220320 103.00000000 -535.456272210174
0.96446195 1.70700214  85.89562586 -535.467718702908
1.09508199 1.68888476 127.07211296 -535.449326843275
1.26457032 1.67945284 103.00000000 -535.432155513971
0.72563024 1.68888476  76.38439866 -535.352968234144
0.96446195 1.97382798  80.99974737 -535.451148713239
0.96446195 1.88828120 109.57391121 -535.461036480981
0.96446195 1.57445458  92.12369748 -535.461911225683
1.10247749 1.84100423 103.00000000 -535.455996365975
1.05029018 1.68888476  67.11275946 -535.429925370796
0.96446195 1.59048318  95.32741957 -535.467340283256
1.11774660 1.99758344 103.00000000 -535.437323932961
1.14163812 1.68888476  80.11149296 -535.441650494004
0.96446195 1.88138944 104.32748862 -535.464122208083
0.96446195 1.74897503  97.15472969 -535.474513705879
1.17563838 1.68888476  81.30343492 -535.437090577587
0.86175964 1.80689102 103.00000000 -535.458277719007
1.02141005 1.68888476 109.64224478 -535.472361575042
1.06772404 1.68888476  95.46400688 -535.466942269209
0.93689309 1.81112819 103.00000000 -535.470047734026
1.00858823 1.73045884 103.00000000 -535.474002223977
1.16306489 1.70532262 103.00000000 -535.452630911304
0.99780318 1.68888476 146.89677404 -535.431860177804
0.96446195 1.82875126 131.20499954 -535.445977782048
1.12773944 1.85099307 103.00000000 -535.450961989384
0.96446195 1.78523364  92.78052716 -535.471604247055
0.95456893 2.04792944 103.00000000 -535.445485241348
0.82279729 1.64208480 103.00000000 -535.449171234600
1.22284478 1.70066965 103.00000000 -535.440839439293
0.96446195 1.77089985 100.00156094 -535.473870272782
0.92020840 1.68888476 145.90632203 -535.433000958351
1.25990429 1.68888476  82.30044684 -535.421644137501
0.96446195 1.89543330 126.71025496 -535.444789443689
1.30801081 1.68888476 104.93504469 -535.423015781015
0.99753080 1.68888476 103.01006885 -535.475365229384
0.95017619 1.68888476 126.00249925 -535.462323864418
0.96446195 1.80353776 105.21984383 -535.470952799784
0.97587038 1.72287438 103.00000000 -535.475701575452
0.96446195 1.99972040 117.18625394 -535.442761517506
0.89803370 1.68888476  71.96057574 -535.437960786253
0.99793337 1.97128592 103.00000000 -535.453989542940
0.96446195 1.90854602  88.73968755 -535.461109214803
0.96446195 1.59920174 139.89437202 -535.444346369214
1.26098044 1.68888476  98.25934988 -535.432434224061
1.02122600 1.68888476 118.62927947 -535.466945598819
0.94662797 1.68888476  95.90875892 -535.474449745684
0.82060293 1.68888476 122.54039993 -535.439217099956
0.96446195 1.80634830 138.83237106 -535.436965160628
0.96446195 1.95448628  95.01776688 -535.457803677971
1.00429987 1.85992827 103.00000000 -535.465508641808
0.92631684 1.81566267 103.00000000 -535.468914576490
0.96446195 1.88306371  91.45963907 -535.464296690609
1.12163924 1.68888476  96.99461340 -535.459268863549
0.96446195 1.60156840  77.29581527 -535.443187022606
0.96446195 1.56128649 125.66348051 -535.458556634307
0.96446195 1.97142461 115.23627971 -535.447686175218
1.00676816 1.68888476 103.66840995 -535.474783065472
0.96446195 1.64079359 135.10379206 -535.451871382941
0.95407837 2.07817327 103.00000000 -535.441915825908
0.95058570 1.69383403 103.00000000 -535.476103408960
1.09877837 1.68888476  62.47064711 -535.414030106706
0.79920463 1.68888476 128.39686301 -535.422195448326
0.96446195 1.61937054  96.32481370 -535.471361950998
0.96446195 1.67507184  85.76828555 -535.466193652397
1.01735141 1.68888476  79.70070982 -535.457052018409
0.96446195 1.67443426  95.46230550 -535.474239551384
0.96446195 1.64224324 109.01634364 -535.474739997009
0.90919622 1.68888476  94.45980687 -535.470753002337
0.90388776 1.68888476  85.82154377 -535.462700676739
0.82590593 1.68888476 103.94917192 -535.451328376082
0.96891811 1.68888476  76.48406022 -535.453296297060
0.79271227 1.85115568 103.00000000 -535.424432882491
1.29763920 1.68888476 109.43143092 -535.424140851793
1.45390209 1.56888991 103.00000000 -535.386570874321
1.06103877 1.67321883 103.00000000 -535.469229785306
1.07314580 1.68888476 112.79370349 -535.464964772381
0.96446195 1.63902859  98.97600729 -535.474148506418
1.08807359 1.70093747 103.00000000 -535.465569499054
1.21248468 1.59753973 103.00000000 -535.438339301437
0.96446195 1.62841703  89.57631886 -535.466680909535
0.96446195 1.69689482  70.67313026 -535.442041320438
0.91125094 1.68888476 114.34173310 -535.469819207524
0.96446195 1.69539628 105.42988367 -535.476076131356
0.86965395 1.68888476 116.25474168 -535.461169571703
0.89519293 1.68888476 108.64830990 -535.470207295704
0.84580345 1.61806484 103.00000000 -535.456650693939
0.96446195 1.54396843  93.33058669 -535.457038730656
0.98606814 1.47481901 103.00000000 -535.444682406967
0.92222192 1.68888476 110.20395875 -535.473038711585
0.96446195 1.78176457 122.12192271 -535.461205029152
0.96446195 1.80261758 108.61553156 -535.469731106207
0.96446195 1.45176905  75.86315316 -535.386558317020
0.86551721 1.79744992 103.00000000 -535.460042448832
1.06944173 1.87678448 103.00000000 -535.457492420325
0.97772624 1.68831483 103.00000000 -535.476143125019
1.15262349 1.69221343 103.00000000 -535.454655464539
1.01636459 1.68888476 100.20483855 -535.473889427890
0.99107068 1.54572603 103.00000000 -535.463536499219
1.12910909 1.68888476 107.29342782 -535.458296308930
0.92482681 1.52729846 103.00000000 -535.458911147888
0.82479875 1.68030477 103.00000000 -535.450873123978
0.96446195 1.82049721 144.52113021 -535.426378409815
1.16711155 1.68888476  84.22424322 -535.442062453423
0.96446195 1.72990193  80.34972946 -535.461578281349
0.99757175 1.68888476  68.98682699 -535.437229605047
1.02612688 1.57906669 103.00000000 -535.466461757266
0.96446195 1.69863757  99.06940651 -535.475879942407
0.97013095 1.65946551 103.00000000 -535.475862453596
1.07953658 1.68888476  86.51600769 -535.458933510572
1.03315382 1.68888476  81.14705787 -535.457895210261
1.20440190 1.68888476  76.05168188 -535.424587444156
0.98411626 1.68888476 113.63348754 -535.472764519239
1.20572787 1.68888476 119.07910210 -535.437292660468
0.96446195 1.78923205  89.86502010 -535.469997206913
0.95552135 1.68888476  74.36859218 -535.448953142809
1.01253252 2.27949981 103.00000000 -535.419255244299
1.05828484 1.65241900 103.00000000 -535.469015209363
1.02343162 1.68888476 119.00933313 -535.466435872842
1.02781782 1.68888476  87.63181029 -535.466006861186
0.96446195 1.61741520 118.96216829 -535.468705987114
0.96446195 1.67073913 141.54818170 -535.442125857011
0.96446195 1.82395223  96.97686962 -535.470223997881
1.47781642 1.68888476 117.10881584 -535.384797960005
0.99805713 1.68888476 138.45121477 -535.444984691957
0.83540300 1.68888476 137.11078035 -535.427665754625
1.12358526 1.66610795 103.00000000 -535.459545453438
0.92317800 1.68888476 101.71703728 -535.474509085872
1.08830454 1.68888476  99.57306769 -535.465287706810
1.25519812 1.76106748 103.00000000 -535.432436277262
1.01237150 1.66313115 103.00000000 -535.474062438609
1.33150260 1.64039673 103.00000000 -535.417043084208
1.06396325 1.68888476  83.98562973 -535.458229694826
0.98526705 1.43138019 103.00000000 -535.426570598313
1.07303859 2.02476898 103.00000000 -535.440836448854
0.89580383 1.80198179 103.00000000 -535.466198720657
0.95904272 1.68888476  67.04408790 -535.431980197978
1.14861156 1.68888476 113.29170131 -535.452320189870
0.96446195 1.56577572  78.56963368 -535.438044523247
1.26072216 1.68888476 103.63255795 -535.433005652610
1.31627158 1.74447949 103.00000000 -535.420352785436
0.92156481 1.68304414 103.00000000 -535.474413964175
0.91242423 1.84630102 103.00000000 -535.464798301774
1.31369524 1.68888476 108.26208065 -535.421169475926
0.85599273 1.68888476  85.77678535 -535.452143810897
1.23333540 1.79828771 103.00000000 -535.434809730335
1.00630919 1.64018890 103.00000000 -535.473623192058
1.05438446 1.51480066 103.00000000 -535.451013775865
0.96446195 2.04846870  88.16586848 -535.446754483457
0.96446195 1.83906808 106.02827274 -535.467652186969
0.81514592 1.68888476 133.09736646 -535.424563674412
0.83764888 1.68888476 138.22551862 -535.426911804651
0.95567149 1.68888476 142.76056082 -535.439548924397
0.99534847 1.68888476  66.24637855 -535.430368628654
0.90405569 2.04896421 103.00000000 -535.440978545658
1.36187619 1.67426869 103.00000000 -535.411841397084
0.99780770 1.68888476 104.49919764 -535.475274794536
1.50246998 1.68888476 109.82868375 -535.383739728202
0.96446195 1.70995618  71.68534881 -535.445443442394
1.12218988 1.81622840 103.00000000 -535.454787701641
1.29287525 1.67209761 103.00000000 -535.426131990139
0.96446195 1.82963412 108.52690492 -535.467445892865
1.18641159 1.68888476 122.64817019 -535.437865535772
0.88262507 1.68888476 149.18368717 -535.422764763458
0.96446195 1.59936745 101.84519695 -535.471781234612
0.96446195 1.64576034 129.14071259 -535.459489968611
0.96446195 1.59332371 107.33918400 -535.471744515412
0.83424822 2.04425584 103.00000000 -535.422948636271
1.26512443 1.78233714 103.00000000 -535.429220987139
1.03651089 1.68888476 134.35155951 -535.447695137835
0.98245887 1.68888476  61.78626425 -535.417382149972
0.96446195 1.86090299  66.84076742 -535.440241651664
0.82718919 1.67995928 103.00000000 -535.451888164399
0.86328462 1.84350358 103.00000000 -535.455495894132
1.19930214 1.68888476  99.51693463 -535.445354739583
1.23985615 1.68888476  89.74408314 -535.432672115782
1.00045781 1.70214521 103.00000000 -535.475133596408
0.96446195 1.69008639 106.96604373 -535.475831669162
0.96446195 1.70739722  61.25730304 -535.417833723381
0.98546350 2.04363665 103.00000000 -535.446017572109
0.88271455 1.68888476  83.48617159 -535.456031895932
1.05743527 1.68888476 108.23451633 -535.468984827674
0.89389486 1.89034119 103.00000000 -535.457655970062
0.96446195 1.95787937 105.79213754 -535.455140613934
1.05574557 1.68888476 102.92722639 -535.470043317588
0.80971948 2.07987975 103.00000000 -535.407368023159
0.92443214 1.68888476 114.48715916 -535.471050212496
0.96446195 1.98905659 117.60836159 -535.443640987832
1.23502389 1.68888476  85.02140966 -535.429590502715
1.12060022 1.89399804 103.00000000 -535.448091290709
0.96446195 1.60195059 115.23890163 -535.470133851546
0.79314788 1.68888476 104.92712044 -535.434602182013
0.78798886 1.68888476 148.42297181 -535.387672146789
1.02166299 1.68888476 112.17976664 -535.471210958630
0.96728846 1.63067546 103.00000000 -535.474604017931
1.07641583 1.68888476 136.10069806 -535.440213923132
0.79433285 2.05324915 103.00000000 -535.401918053322
1.20313948 1.69452971 103.00000000 -535.444858028732
0.90000292 1.80010502 103.00000000 -535.467015519531
1.32596537 1.51287789 103.00000000 -535.400672313415
1.45853863 1.55888254 103.00000000 -535.384314893560
0.99965001 1.65340057 103.00000000 -535.474616326195
0.96446195 1.66628105  98.66450362 -535.475292964972
1.07270484 1.73772353 103.00000000 -535.466966033781
0.88601535 1.75900668 103.00000000 -535.467283036132
1.16188080 1.68888476 131.29342810 -535.432573469839
1.17990130 1.79954728 103.00000000 -535.445439996227
1.26437367 1.49279063 103.00000000 -535.407585467893
1.05219706 1.97324425 103.00000000 -535.449300711761
0.99914352 1.84122148 103.00000000 -535.467510875598
0.82348674 1.95478784 103.00000000 -535.429154177611
0.96446195 2.01243427 124.48195258 -535.434229280235
0.88839426 1.48792252 103.00000000 -535.443531445029
1.09989442 1.68888476 109.62687346 -535.462437461370
1.46101261 1.68888476 108.34203319 -535.391722794713
0.96446195 1.88472996 135.61273723 -535.433931492318
1.01718536 1.68888476  56.09570109 -535.397936887208
0.98792328 2.14560736 103.00000000 -535.434211912761
0.97723251 1.69887113 103.00000000 -535.476112487051
1.26182501 1.68888476  88.25662178 -535.426984107062
0.86098773 1.67748552 103.00000000 -535.463566818993
1.09002047 1.68888476 130.91368382 -535.445363469490
0.96446195 1.76156673 105.71574683 -535.473667082355
0.96446195 1.89007820  95.60867365 -535.464408422901
1.06121979 1.53731147 103.00000000 -535.455374598471
0.84468289 1.68888476  70.45496646 -535.420376372263
1.26159856 1.78701524 103.00000000 -535.429674512004
0.96446195 1.72891701 104.61227303 -535.475430884046
0.98223879 1.68888476 109.13380589 -535.474923229049
0.75013377 1.83667536 103.00000000 -535.394051785863
1.12171581 1.68888476  83.70791709 -535.449479688959
0.96446195 1.85690574  78.58764502 -535.457441811754
1.01242691 1.68888476  74.87086932 -535.449161166166
1.31153830 1.75229929 103.00000000 -535.421027386154
0.96446195 1.47289361  96.57249191 -535.439089946542
0.96446195 1.48364727  91.40971687 -535.436530815058
0.96446195 1.93755577  80.98983577 -535.454245341149
0.86692279 1.92672954 103.00000000 -535.447740669987
0.96446195 1.96771878  98.27576206 -535.456169683926
0.96446195 1.74373387  67.97712884 -535.439715071151
1.09248972 1.68888476 115.87564102 -535.460227748002
1.36920056 1.71419572 103.00000000 -535.410225106276
1.25404758 1.73928089 103.00000000 -535.433579642276
0.96446195 1.80112225 100.26871852 -535.471981009211
1.01509368 1.67091999 103.00000000 -535.474023012934
1.51929600 1.65787686 103.00000000 -535.381361852138
0.96446195 1.77379974 124.71406111 -535.459042888359
0.96446195 1.67031315  61.83126557 -535.413736495065
0.96446195 1.75458264 124.76749725 -535.460428086953
0.85774764 1.55775145 103.00000000 -535.453212974410
0.99619851 2.04193090 103.00000000 -535.445846945745
0.93934314 1.82441507 103.00000000 -535.469100661698
0.89819761 1.68176463 103.00000000 -535.471543180560
0.88752179 2.02012050 103.00000000 -535.441537834196
1.26295374 1.68888476 120.77317007 -535.424245667714
0.96446195 1.57883541 111.50218669 -535.469485922958
1.13757876 1.68888476 114.32876971 -535.453708605730
0.81039982 1.68888476 108.47536748 -535.443410203301
0.96446195 2.14538463 117.99896275 -535.425779893789
0.96446195 2.03311603 101.35295181 -535.447960153637
0.96446195 2.00313881 119.19341107 -535.440581488964
0.96446195 1.72049222 116.13172144 -535.470493249332
0.96446195 1.77523909  99.20799784 -535.473602179724
0.76285922 1.68888476 133.51303976 -535.391467050219
0.97501152 1.68888476 111.67145175 -535.474056647349
1.11869459 1.68888476 148.43841695 -535.414053483995
1.13503111 1.68888476 105.81038184 -535.457571592243
0.96446195 1.63414596 124.41907260 -535.464519062817
0.96446195 1.68253486  96.30706398 -535.474840739893
1.05691082 1.48104087 103.00000000 -535.440734372370
0.96446195 1.98485650 113.12652562 -535.447708169513
1.44784138 1.68888476 109.57858797 -535.393874596879
0.96446195 1.87311132 129.75172419 -535.443360185247
0.99719282 1.45791869 103.00000000 -535.437761398433
1.10433493 1.68888476 109.30462852 -535.461847107233
0.72451313 1.80295756 103.00000000 -535.371410488267
1.03947351 1.47866585 103.00000000 -535.441959545408
1.07937662 1.80258826 103.00000000 -535.462486481546
1.46743546 1.60258233 103.00000000 -535.387773262494
0.96446195 1.73968399 127.19252168 -535.458624029384
0.96446195 1.72066809 109.79502847 -535.474187243981
0.76551601 1.74964649 103.00000000 -535.413725686847
0.98088807 1.58840701 103.00000000 -535.470557239058
0.88236609 1.68888476  55.13930988 -535.379721972488
1.34591273 1.78945944 103.00000000 -535.411854543893
0.71199303 1.80683445 103.00000000 -535.356360835547
0.96446195 1.52397970  90.25456039 -535.448116148910
0.96446195 1.70295787 124.72303249 -535.463386975779
0.83054555 1.68888476  77.36215701 -535.430165207844
1.00692121 1.68888476  93.73525183 -535.472268473521
0.96446195 1.78034709  71.08887825 -535.447744963845
0.92483566 1.63325913 103.00000000 -535.473245874039
1.29972301 1.68888476  83.58325966 -535.414793948573
0.89785519 1.68888476 100.82686590 -535.471330508370
0.68782040 1.68888476 108.60489548 -535.329242490193
0.94188867 1.68888476  84.71838051 -535.465046364634
1.12340839 1.68888476 110.92876770 -535.458004810894
0.96446195 1.51733068 113.81482151 -535.458727149295
0.99551762 1.68888476  87.10408383 -535.467700538294
1.04634305 1.68888476 118.03492873 -535.464873393828
1.33240978 1.68888476  88.16272656 -535.412162402974
0.96446195 1.61484687  81.82902726 -535.454259388048
0.98469742 2.08932696 103.00000000 -535.440703341232
0.96446195 1.64962751 118.19993867 -535.470219811656
1.19394698 1.68888476  76.20874375 -535.426766593522
0.87204708 1.68888476 135.24313568 -535.441325330170
1.27642551 1.47804404 103.00000000 -535.400549019251
1.55388969 1.59558898 103.00000000 -535.372286305907
0.96446195 1.58615382  94.98534764 -535.466454417603
0.94678736 1.88252121 103.00000000 -535.463993558920
1.19119411 1.83069224 103.00000000 -535.440905930399
0.76512568 1.68888476 108.48746558 -535.414735236344
1.08651010 1.68888476  99.63712365 -535.465567162787
0.93543142 1.91271560 103.00000000 -535.460188425342
1.19484992 1.68888476 131.32176679 -535.426241713351
0.96446195 1.97499938  99.15215971 -535.455213960089
1.07757265 1.68888476 143.65326422 -535.428453252464
0.86002811 1.68888476  77.19145842 -535.440193255856
1.00694046 1.68888476 109.05052532 -535.473703154322
1.22624283 1.68888476 102.76532117 -535.440165484103
1.20228197 1.68888476 128.74629246 -535.428039825529
0.96446195 2.03127417 121.30771198 -535.435357695617
0.79023347 1.46343846 103.00000000 -535.398727213497
1.02492325 1.68888476 102.54783797 -535.473360187411
0.82261984 1.64950616 103.00000000 -535.449377301444
1.35293206 1.57476501 103.00000000 -535.406831900791
0.92203621 1.68888476  75.32935760 -535.448549297867
0.96446195 1.98208932  84.38906221 -535.452307873261
0.96446195 1.91754334 119.88517536 -535.449787234900
0.73859226 1.68888476  63.71093519 -535.333046606903
0.91054512 1.68888476  76.34349602 -535.449140855351
1.15153768 1.56705600 103.00000000 -535.446230859567
1.30389179 1.69746648 103.00000000 -535.423988868611
0.98171363 1.57312628 103.00000000 -535.468515860475
1.50700680 1.68888476 109.93658776 -535.382902515266
0.82685014 1.65182314 103.00000000 -535.451270663343
1.24377018 1.65919301 103.00000000 -535.436048197657
1.13525888 1.68888476 110.63419905 -535.456058621205
1.07478975 1.68888476  77.02182418 -535.447121357600
0.96446195 1.61222436 123.63466373 -535.464541326114
0.92961514 2.09222747 103.00000000 -535.438863662157
0.96446195 2.16052539 109.42348528 -535.429849745844
1.17781439 1.75584878 103.00000000 -535.448350549282
1.12970665 1.68888476 109.20806195 -535.457602854776
0.99486500 1.68888476 116.23256262 -535.470622627525
0.94417770 1.68888476  88.76703394 -535.469494639603
1.23504977 1.68888476 111.71984997 -535.436169207690
0.96446195 1.76192782  96.53468402 -535.473867901308
0.96446195 1.89276009  90.92126970 -535.463280022143
1.17016933 1.71026381 103.00000000 -535.451215512330
0.79467897 1.77853757 103.00000000 -535.431862982780
0.96446195 1.89682204 109.75960419 -535.460006657120
0.96446195 1.78339539 112.81368209 -535.468923613152
1.24319277 1.50540216 103.00000000 -535.415409821222
0.96446195 1.49226043  93.19195841 -535.442121745043
0.88293247 1.68888476  99.03567292 -535.468298158184
1.14621531 1.68888476 139.52698110 -535.423638097577
0.96446195 1.61201433 103.99679347 -535.473387169342
0.95468824 1.68888476 130.68134127 -535.456810282774
0.88459580 1.68888476 113.00037718 -535.466457408344
0.96446195 1.75970423  78.92331207 -535.460105839877
0.96446195 1.74970259 100.77724579 -535.474911272660
0.96446195 1.78993475 106.51376880 -535.471561278378
0.96446195 1.99548697 107.92491208 -535.449703659760
1.16444671 1.68888476 104.69128691 -535.452312639100
1.29678077 1.68888476  86.30409711 -535.418032058346
0.96446195 2.17431172 114.80492904 -535.425106021946
1.03643475 2.14412944 103.00000000 -535.431338429178
0.68473591 1.68888476 132.00311312 -535.305352269655
1.09189917 1.88613425 103.00000000 -535.453420324366
1.03445064 1.72843012 103.00000000 -535.471859770448
0.96961179 1.68888476 100.70626586 -535.476125894588
0.97949607 1.68888476 106.88161469 -535.475650351197
1.01512018 1.68888476  94.83355820 -535.472262499100
0.92708169 2.07202748 103.00000000 -535.441009927179
1.15365079 1.63196458 103.00000000 -535.452683820406
0.91403477 1.68888476  83.07752595 -535.460574333006
0.96446195 1.81285784  88.13460090 -535.467818358465
0.96446195 1.53252887 101.81958684 -535.461008951543
0.96540094 1.68045628 103.00000000 -535.476269332979
0.95760993 2.20688201 103.00000000 -535.427622426248
0.94922495 1.68888476 104.56931535 -535.476008703282
1.04562055 1.86004964 103.00000000 -535.461963960690
0.96446195 1.61322000 110.52883875 -535.472852673118
0.96446195 1.71137944  66.77774280 -535.434082713755
1.14049940 1.68888476 120.62437941 -535.448389916639
0.82194825 1.68888476  78.02768836 -535.427685419284
1.18286607 1.68888476 118.39778554 -535.442345947585
0.96446195 1.61989539 109.13684979 -535.473638900828
0.96446195 1.81072920 114.72192694 -535.465336588467
1.18553127 1.58366624 103.00000000 -535.442084409136
1.32233190 1.68888476  90.85531403 -535.416223922028
0.94739416 1.67691111 103.00000000 -535.475964254378
0.86151162 1.68888476  87.55704028 -535.455748926224
1.00804138 1.68888476  78.35205805 -535.455515433306
0.89765733 1.66217634 103.00000000 -535.471193290641
0.96446195 1.54990379  89.84228436 -535.454202359887
0.96446195 1.74282410  66.42199787 -535.435985926095
0.94031718 1.68888476 113.08987240 -535.472898574687
0.67888821 1.69326519 103.00000000 -535.316019754123
0.74169642 1.68888476 142.91009942 -535.359917361366
0.96446195 1.73013407 145.50854594 -535.432732811658
0.96446195 1.71176006  87.88867834 -535.469780225821
0.96446195 1.79762817  75.34017132 -535.454986551468
0.84967277 1.43620774 103.00000000 -535.413844421200
0.96446195 1.94512407  93.41312658 -535.458690529811
0.70675829 1.68888476 132.44763238 -535.335640695780
1.07604324 1.68888476 128.30810222 -535.450681052955
0.96446195 1.86454813 116.30419465 -535.458838512537
0.96446195 1.55882858 109.38484004 -535.467237780735
1.08442268 1.68888476  90.07667593 -535.461385937320
0.96446195 1.71984035 120.30614075 -535.467066536248
0.86833686 1.77804508 103.00000000 -535.462159475406
0.92719384 2.13685543 103.00000000 -535.433510079066
0.96446195 1.82994654  82.80594542 -535.462918688079
0.96446195 1.49731116 107.88848541 -535.454081855306
0.96446195 1.63717217  57.94344421 -535.391843382229
1.06784118 1.47547184 103.00000000 -535.437404653069
1.03667274 1.70145627 103.00000000 -535.472168316805
1.04886245 1.68888476  70.01019780 -535.436647566764
1.20672951 1.68888476 114.24704796 -535.440549315969
1.00962093 1.58219180 103.00000000 -535.468259844448
0.96446195 1.45793680 109.83791772 -535.441421146782
0.94909996 1.81681772 103.00000000 -535.470166706935
1.12223731 1.68888476  86.08624879 -535.451943256228
0.97891338 1.68888476 113.93255357 -535.472749340680
0.98650032 1.68888476  88.93873036 -535.469807597178
0.90094246 1.68888476  74.85675828 -535.444772391866
0.94260630 1.68888476  97.23211394 -535.474813874269
1.25030411 1.61433678 103.00000000 -535.432191652784
1.17427150 1.68888476 125.99180858 -535.436688366328
0.96446195 1.69655907 102.38050207 -535.476272277691
0.96446195 1.72699898 121.12233386 -535.465939685391
0.96446195 1.99256669  88.65077238 -535.452831545781
1.12654958 1.69143785 103.00000000 -535.459346904535
0.92621552 1.84971912 103.00000000 -535.465910734983
0.95745945 1.98445482 103.00000000 -535.453028611342
0.96446195 1.86760330  77.89074191 -535.456151747766
1.10190522 1.86806760 103.00000000 -535.453642254705
1.13241962 1.79233598 103.00000000 -535.454722859581
0.89133669 1.84064458 103.00000000 -535.462141371064
0.96446195 1.70503582 110.05531596 -535.474566668628
0.82680796 1.78320824 103.00000000 -535.447824947831
1.18906348 1.68888476  99.82661203 -535.447440852754
1.04201260 1.78075509 103.00000000 -535.468624714423
1.53002435 1.77357153 103.00000000 -535.376792071602
0.96446195 1.90295033  84.06827836 -535.459164845692
0.92230448 1.82847971 103.00000000 -535.467473559722
1.14236015 1.61078234 103.00000000 -535.453168323046
1.08008947 1.85992539 103.00000000 -535.457645051335
0.96446195 1.83735090 108.76664317 -535.466615039109
0.96446195 1.72486428  59.43940575 -535.414372604336
1.04624929 1.69739362 103.00000000 -535.471155013358
0.96446195 1.90787215 101.37478975 -535.462173739967
0.96446195 1.64861409 111.87344480 -535.473939777834
1.03724994 2.10576688 103.00000000 -535.435577028023
1.17621773 1.63765184 103.00000000 -535.448726206317
0.96446195 2.05900998 112.11533870 -535.439688961467
0.87919880 1.68888476 110.78119056 -535.466423838531
0.96412263 1.58660182 103.00000000 -535.470620514159
0.90581919 1.68888476 102.72834224 -535.472643488407
1.13433716 1.68888476  96.49698435 -535.456890238646
1.11010967 1.68888476  98.44934885 -535.461617639472
1.08679438 2.11760347 103.00000000 -535.428330783825
1.08611798 1.68888476  63.75241170 -535.418507916879
0.98811007 1.68888476 121.86709729 -535.466238411831
0.98902819 1.70560176 103.00000000 -535.475661343717
0.96446195 2.17935455 119.80105791 -535.420930650502
0.96446195 1.89017303 108.33223017 -535.461504114163
0.96446195 1.79189008 100.04869604 -535.472613412544
1.40351082 1.68888476  92.66382843 -535.400575019059
0.99848838 1.79845409 103.00000000 -535.470993334314
1.01878722 1.68888476 126.84573996 -535.459005339254
1.07459714 1.84216124 103.00000000 -535.460001655766
0.85249419 1.62205597 103.00000000 -535.459083805384
0.96446195 1.85206389 143.65885907 -535.424622230628
0.96446195 1.54799143 134.75154814 -535.446975413628
0.76822683 1.68888476 117.46060494 -535.412480629334
0.96446195 1.72444112 103.20606282 -535.475747016665
0.99987487 1.68888476  74.47850369 -535.449009918264
1.00463704 1.68062023 103.00000000 -535.474903579949
1.19673052 1.68888476  87.62382530 -535.439687234224
0.96446195 1.93655078 122.72030498 -535.444739939003
1.36999468 1.68888476 114.95469293 -535.406704161466
0.84848609 1.63389818 103.00000000 -535.458537902953
0.90599085 1.46140686 103.00000000 -535.436789673184
0.96446195 1.89533342 125.79771978 -535.445891406623
1.11170528 1.68888476 107.67934888 -535.461162448459
1.34589068 1.68888476  89.56888590 -535.410420637498
0.87713349 1.68888476 127.04249122 -535.452881405417
1.05163338 1.68888476  95.18476367 -535.468838502991
0.96446195 1.61947375 140.59197354 -535.443958737568
0.96446195 1.64434072 125.12933864 -535.463948463290
1.13445689 1.63378895 103.00000000 -535.456292300335
1.07651699 1.68888476  82.00137447 -535.454165829698
1.25333330 1.78616953 103.00000000 -535.431449141394
0.87802843 1.68888476 109.61425027 -535.466629861211
1.08451071 1.85646757 103.00000000 -535.457333544822
1.13133896 1.67747940 103.00000000 -535.458408849716
1.06556981 1.68888476 121.38153535 -535.459587080388
0.96446195 1.77344167 133.08971680 -535.448425785356
0.83376070 1.68888476  99.57969103 -535.454100943215
0.96446195 1.51771113 116.63253236 -535.457814998105
0.99593678 1.51680552 103.00000000 -535.456873955703
0.90868082 2.00156239 103.00000000 -535.447287785530
1.05414418 1.68888476  93.94619394 -535.467926489063
0.96446195 1.59301542 129.18693825 -535.457737729149
1.06964812 1.68888476 104.58515432 -535.468142075951
0.88956023 1.76569518 103.00000000 -535.467575085726
0.92791619 1.68888476 109.70289256 -535.473702425653
0.96446195 1.57193490 138.06073185 -535.445180875812
1.48441239 1.70846417 103.00000000 -535.387700546937
0.96446195 1.87347481  81.34676414 -535.459204573454
1.13224827 1.98359086 103.00000000 -535.436479757426
0.96446195 1.67942134  74.27739270 -535.448099998251
0.96446195 1.80018490 121.73269302 -535.460039557369
1.42054179 1.65448823 103.00000000 -535.399629769218
0.91549842 1.68888476 124.63068640 -535.461621082778
1.21745975 1.68888476 117.68008580 -535.436052168865
0.93125067 1.52469471 103.00000000 -535.458771317056
1.20551955 1.55196415 103.00000000 -535.433315686387
0.79687002 1.68888476 152.21635974 -535.387288263376
0.86109584 1.68888476 106.39046391 -535.463331332926
0.90705656 1.68888476  99.28222975 -535.472360177246
0.96446195 1.60286644 107.65300938 -535.472618610886
0.96446195 1.79536341  79.57980884 -535.460717760304
0.96446195 1.86923062  89.02850415 -535.464546925976
1.10973885 1.68888476 111.85080001 -535.459873364951
0.82912640 1.95618218 103.00000000 -535.431444532513
1.18276080 1.68888476 118.70294410 -535.442120408608
0.82361064 1.73688562 103.00000000 -535.449119927709
0.96446195 1.80012682 110.12078604 -535.469184707856
1.13725617 1.68888476  65.77221504 -535.417365889810
1.20695272 1.68888476 123.32142037 -535.433158532874
0.96446195 2.22350636  86.65032140 -535.428015948449
1.10674786 1.95444840 103.00000000 -535.443934974479
0.80482687 1.68888476 133.59380651 -535.418750234160
0.93535877 2.09199386 103.00000000 -535.439342112415
0.95208293 1.68888476 137.71099498 -535.447105994164
0.96446195 1.60050544 100.01007827 -535.471284000944
0.86293383 1.91843779 103.00000000 -535.447586772543
0.96446195 1.53833751 128.06219782 -535.453154338235
0.96446195 1.60541249  58.09329492 -535.383406767534
1.19757022 1.80263478 103.00000000 -535.441756470027
0.96446195 1.76506566 124.26591041 -535.460220341895
0.96446195 1.85547200 110.88065852 -535.463684410747
0.99187245 1.68888476  85.89964491 -535.466585041770
0.94814726 1.66737313 103.00000000 -535.475844833057
1.18891749 1.68888476 109.75921092 -535.446304056647
0.88201163 1.64583640 103.00000000 -535.467869676424
1.17003312 1.55727363 103.00000000 -535.441171134789
0.96446195 1.60180264  91.69355075 -535.465703325838
0.96446195 1.57982887 117.87489797 -535.466707335003
1.15521930 1.68888476 122.73178436 -535.443709865473
1.02408287 1.53988003 103.00000000 -535.460048078937
1.06166205 1.68888476 133.53592946 -535.445852374849
1.10154522 1.83491565 103.00000000 -535.456659821385
0.96446195 1.70293918  62.96851716 -535.422501780509
0.99464972 1.65854487 103.00000000 -535.475059868186
0.80966531 1.67305368 103.00000000 -535.443754553383
0.83012804 1.71477944 103.00000000 -535.452661730466
0.89787936 1.68888476 132.35933482 -535.450150558404
1.12827346 1.68888476 101.24737613 -535.458989884057
1.11069434 1.49542363 103.00000000 -535.437462114514
0.77695441 1.66523408 103.00000000 -535.424094617166
0.96446195 1.96280260 127.31109344 -535.436566829405
0.92952275 1.62514346 103.00000000 -535.473100790536
1.02605921 1.68888476 110.45499371 -535.471618433336
1.10735148 1.70034079 103.00000000 -535.462554555062
0.96446195 1.87630273 103.12445382 -535.465000968924
0.96480764 1.48120843 103.00000000 -535.447370625649
0.96446195 1.62583713 113.75434737 -535.472300300583
1.02322956 1.68888476 118.20984879 -535.467107667560
0.94784180 1.88382915 103.00000000 -535.463902046230
0.96446195 1.85263851 137.17496345 -535.434936110062
0.95120904 1.82663250 103.00000000 -535.469418937920
0.80347613 1.68888476  92.07785292 -535.436427109837
1.00788217 1.57329491 103.00000000 -535.467166396543
0.93775425 1.68888476  82.24110180 -535.461554747608
1.23807889 1.68888476 104.20293495 -535.437665404524
1.04916275 1.68888476 102.95286985 -535.470834639737
0.96446195 1.79638654  97.55789935 -535.472203670837
0.96446195 1.70810911  85.35777655 -535.467171032545
0.96446195 1.82878018  79.90477287 -535.460101972127
0.96446195 1.83293029  80.00919185 -535.460046609275
1.09938985 1.68888476 123.07433518 -535.453005133529
0.87481585 1.68888476 103.55375371 -535.467080701588
0.96446195 1.81958225 122.43092912 -535.457530604228
0.90231321 1.68702371 103.00000000 -535.472165569453
0.97013558 1.68888476 125.66306678 -535.462815536111
0.92098840 1.55808027 103.00000000 -535.464688312886
0.90990751 1.60510396 103.00000000 -535.469636153436
0.89203417 2.04443712 103.00000000 -535.439498407882
1.03044163 1.68888476  87.42983550 -535.465574254673
1.13750082 1.72383617 103.00000000 -535.457015629887
1.13582141 1.68888476  73.99684151 -535.433331779181
0.96446195 2.09003578  86.45035895 -535.441892946138
0.82990468 1.68888476 115.05841893 -535.449183894451
0.96446195 1.72277198 108.61108022 -535.474581445153
0.96446195 1.42339957 116.01704163 -535.426755838864
1.30789198 1.81292626 103.00000000 -535.418217394209
1.07157079 1.68888476 129.36888079 -535.450002262938
0.95283071 1.68888476  90.20975154 -535.471059250602
0.96446195 1.93280835 115.50485364 -535.451954330220
0.96446195 1.62862722  78.35143224 -535.449968444380
0.93666589 1.68888476  90.76011059 -535.470811112901
1.26959530 1.64522099 103.00000000 -535.430149957684
1.08259055 2.00186803 103.00000000 -535.442178854072
1.00313371 1.68888476  66.28779036 -535.430337750269
0.96446195 2.12783427 105.33227374 -535.435482436762
0.96446195 1.71357652 143.10698439 -535.437687297174
1.06192263 2.03973287 103.00000000 -535.440509440039
0.96446195 1.93494422 127.61888414 -535.439306565532
0.84361890 1.69430293 103.00000000 -535.458124612358
0.84797738 1.70117844 103.00000000 -535.459513632399
0.96446195 1.70779343 119.67144650 -535.468160647072
0.96446195 2.03078551 122.79691425 -535.433935846430
1.10577518 1.68888476 108.85586919 -535.461771923364
0.96446195 1.92505993  96.67766056 -535.460928760158
1.09096235 1.68888476  59.89608213 -535.407703360826
0.96446195 1.57360008  70.56214545 -535.419450561640
0.93479225 1.68888476  76.08930079 -535.451186809431
0.96446195 1.73295471 118.49456410 -535.468000187815
0.84933912 1.77605561 103.00000000 -535.456772690131
0.87943636 1.68888476 115.47725798 -535.463925446569
0.91992683 1.68888476 100.79413161 -535.474105547746
1.06960801 2.04788727 103.00000000 -535.438609107944
0.96446195 1.59822232 103.39685918 -535.472014952889
0.87524337 1.85475531 103.00000000 -535.457466953925
1.19471953 1.68888476 117.19126835 -535.440955573783
0.92666516 1.68888476 139.87665140 -535.442752414287
0.77999841 1.68675634 103.00000000 -535.426280153881
0.96446195 1.51634616  98.75516433 -535.455173226067
1.06922569 1.68888476  86.24150884 -535.460042438637
0.96446195 1.53673810 110.96638235 -535.463290123765
1.18828044 1.77081449 103.00000000 -535.445562674230
0.96446195 1.56822583  73.78311990 -535.427011960097
0.96446195 1.63187267 102.34918551 -535.474596007194
0.96446195 1.58600449 109.13181784 -535.470788821439
0.96446195 1.68170939 111.30310943 -535.474422147045
1.09780835 1.70672681 103.00000000 -535.464018296209
1.04461365 1.77743891 103.00000000 -535.468543277004
0.96446195 1.96240096 102.46064690 -535.455858307549
1.26979066 1.68888476  93.69581626 -535.428886093452
1.00452502 1.68888476 110.96963456 -535.473103120005
1.09888987 1.68888476 124.36842253 -535.451744020814
1.04024066 1.66127760 103.00000000 -535.471431806608
1.44655322 1.68195309 103.00000000 -535.395052304290
0.96446195 1.52932738  92.74283651 -535.452790185171
1.20445158 1.68888476 102.75297270 -535.444591877093
0.96446195 1.67452329 102.62611899 -535.476194447953
1.08172657 1.52051213 103.00000000 -535.448749882579
0.96446195 1.78604378 116.37354801 -535.466145482204
0.96446195 1.73055166 119.66873750 -535.467101108205
0.96446195 1.77609634 110.00136829 -535.471069573905
0.96446195 1.62514900  67.45707323 -535.422745480159
1.05383262 1.95621452 103.00000000 -535.451032899227
1.37229828 1.79819331 103.00000000 -535.405818380811
0.98371373 1.86331139 103.00000000 -535.466091038589
1.02507488 1.54028714 103.00000000 -535.460039579407
1.10887389 1.68888476  68.92823517 -535.427751883686
1.08152696 1.68888476 106.03090902 -535.466257145187
0.88140468 1.66055778 103.00000000 -535.468224175544
0.96446195 1.66212846 141.74112255 -535.442075718935
1.00154365 1.68888476  88.48204079 -535.468721635537
0.96446195 1.68880056 128.85731632 -535.459148208614
0.90735530 1.74478330 103.00000000 -535.471461867640
1.29751602 1.61109486 103.00000000 -535.422131268935
1.02183922 1.68888476 136.38766763 -535.446233744502
0.96446195 1.71200415  72.66406864 -535.447641321119
0.84383160 1.73583738 103.00000000 -535.457103197022
1.17594994 1.68888476 104.86069578 -535.450084854504
0.81993957 1.68888476 132.89838955 -535.427035669226
0.95751782 2.04535664 103.00000000 -535.445867746265
0.96446195 2.01873455  89.34203385 -535.450211219919
0.96446195 1.73636046  79.18717204 -535.460108275880
1.11429671 1.94468005 103.00000000 -535.443800460038
0.96446195 1.72703342 132.18648352 -535.453036411632
1.00426408 1.99375695 103.00000000 -535.451073454474
0.96446195 1.57938412  90.81817221 -535.461339347743
1.03818917 1.59228187 103.00000000 -535.466896290311
0.96446195 1.64918894  59.73430300 -535.401929741745
0.95530338 1.90758325 103.00000000 -535.461645024680
0.96446195 2.21533616  97.49602710 -535.428385015705
0.96446195 1.84510091 106.46530762 -535.466920695054
0.78060785 1.89382411 103.00000000 -535.412101232119
0.96446195 1.81052381  72.27832029 -535.450116128471
1.06044084 1.68888476  80.52528286 -535.454180316969
1.11038088 1.68888476  97.62412643 -535.461350732350
0.75421666 1.85093400 103.00000000 -535.396243721316
1.04955943 1.68888476 133.00272154 -535.448088843816
1.12261376 1.68888476  62.28822706 -535.411130864540
0.98656616 1.68888476 139.63161558 -535.443801494995
0.93884844 1.61450267 103.00000000 -535.472870520407
0.96446195 1.63298294  80.51265234 -535.454563258687
0.87734865 1.68888476 113.54300192 -535.464659762830
0.96446195 1.70750182  95.52124038 -535.474761111244
0.96446195 1.71894771  83.46547319 -535.465297162744
0.92588376 1.68888476 113.99550488 -535.471466350520
1.03713820 1.68176541 103.00000000 -535.472132765415
0.99497724 1.68888476 116.63948624 -535.470325319885
1.04578269 1.68888476 122.69612616 -535.460766597776
0.99221450 1.80433629 103.00000000 -535.470864053174
0.75970935 1.58825850 103.00000000 -535.406463083893
0.91956849 1.83397104 103.00000000 -535.466720828048
1.07189898 1.68888476  89.61168237 -535.462767055625
0.96446195 1.74497714  79.53035644 -535.460768290724
0.95136196 1.68888476  60.14291241 -535.410404202887
0.96446195 1.84546671  80.94312226 -535.460419800564
0.96446195 1.97003364  90.34502269 -535.455593260717
0.96446195 1.84915404 106.27453353 -535.466611763826
0.87774720 1.68888476 112.72279263 -535.465192517583
0.99718283 1.68888476  58.05275774 -535.405026558968
0.90056932 1.51496351 103.00000000 -535.453242553576
0.96850555 1.64283311 103.00000000 -535.475252299407
0.96446195 1.84954774 106.76540646 -535.466374865170
0.96446195 1.82187263  78.51623054 -535.458768337611
0.95373825 1.77986304 103.00000000 -535.472996922443
0.96446195 1.73823363  83.83917132 -535.466029693748
1.19629661 1.79530414 103.00000000 -535.442506079407
1.32622663 1.69460302 103.00000000 -535.419331270779
0.96446195 1.61887339 112.41408896 -535.472545575550
0.84968973 1.76072815 103.00000000 -535.457834385347
1.02474412 1.94477476 103.00000000 -535.455217541773
0.96446195 1.68190204  82.30417121 -535.462148768046
1.20909114 1.68888476 110.97941963 -535.441782714148
1.07092143 1.68888476  69.12629941 -535.432625287062
0.89720792 1.58227534 103.00000000 -535.465385008376
1.09602483 1.68888476 124.72654005 -535.451809489332
0.95396771 1.92638732 103.00000000 -535.459560498511
1.20554706 1.68888476  95.08721689 -535.442766119603
0.76994870 1.68888476  57.38029807 -535.336792961753
0.96446195 1.56492253  64.07194315 -535.394952744045
0.96446195 2.06942547 102.68362890 -535.443271468473
0.98378558 2.24119036 103.00000000 -535.424173772208
1.12708828 1.68993559 103.00000000 -535.459250899737
0.96446195 1.54482967  56.32005904 -535.351482242536
0.96446195 1.40986273 112.72121832 -535.420122579112
1.16429794 1.78499438 103.00000000 -535.449373641021
0.96446195 2.11022163  85.06601947 -535.439400526718
1.05324011 1.66007393 103.00000000 -535.469900374892
1.19494691 1.73661275 103.00000000 -535.445743271788
1.31832276 1.55126685 103.00000000 -535.410235598600
0.96446195 1.74193353  85.94300399 -535.468190564379
0.95341799 2.00893966 103.00000000 -535.450050028414
0.96446195 1.77005331 121.85072882 -535.462408294878
0.96446195 1.60761113  82.68752306 -535.454584036535
0.96446195 1.60636637 112.87837957 -535.471556807495
0.84254157 1.66364175 103.00000000 -535.457606832066
1.24899587 1.68793827 103.00000000 -535.435463314060
1.10880558 1.68888476  71.97857528 -535.433759477395
0.96446195 1.81896323  79.86234232 -535.460413685119
0.96446195 1.87670884  67.40419217 -535.441021910837
0.90223804 1.68888476 130.31204918 -535.453414701458
0.83495172 1.68888476 114.51381998 -535.451509029596
0.96446195 1.76586257 102.23927751 -535.474062680061
0.96446195 1.84842539 132.33108467 -535.442446691290
0.96446195 1.96796358 115.58054341 -535.447814552704
1.14427357 1.68888476 110.84433290 -535.454344003472
0.83406658 1.68888476  76.50875475 -535.429946021717
0.91360438 1.68888476  84.29745443 -535.462129227290
1.08370900 1.91504291 103.00000000 -535.451653137617
1.08630361 1.75190113 103.00000000 -535.464457662660
0.95460688 1.68888476 105.33803371 -535.476050566264
0.96446195 1.56409186 105.92626605 -535.468040439084
0.96446195 1.66574042 129.09400209 -535.459425483349
0.96446195 1.53898896  88.39560753 -535.449485094660
1.19980568 1.87066895 103.00000000 -535.435712343567
1.54436442 1.65582077 103.00000000 -535.377005837380
0.96446195 1.74782255 127.88959951 -535.457233890213
0.83790300 1.69212330 103.00000000 -535.456089874945
0.96446195 1.85949724 116.53723739 -535.459169764194
0.88127084 1.68888476  89.29797040 -535.462308288878
1.15591882 1.59446671 103.00000000 -535.449040755053
0.96446195 1.67430297  90.79820236 -535.471160618607
0.96446195 1.73868746  85.76591864 -535.468023500571
0.96446195 1.68065203 115.59404780 -535.472037667248
0.96446195 1.65220161 132.63051206 -535.455134013131
0.98252267 2.20055822 103.00000000 -535.428370801862
1.20854771 1.68888476  88.61498563 -535.438168486982
1.04594156 1.68888476 126.08294728 -535.457152641136
0.97334869 1.68888476 125.57516431 -535.462862956861
1.25824286 1.82157755 103.00000000 -535.427974397081
1.41652685 1.68888476  94.94670578 -535.399105445724
0.87764237 1.68888476 107.49701803 -535.467188337536
0.96446195 1.89355351 120.64037094 -535.451721563744
0.98214011 1.68888476  84.40610437 -535.465167804096
0.83099766 1.90404126 103.00000000 -535.438218825791
0.75731597 1.68888476 118.35405641 -535.403142782278
1.11573811 1.70980930 103.00000000 -535.461066299128
1.30935791 1.68888476  86.37384495 -535.415467844952
1.02840909 1.58145703 103.00000000 -535.466562718088
0.86013407 1.68888476  85.04514593 -535.452473202389
1.10143434 1.79956256 103.00000000 -535.459400217504
1.28222941 1.68888476 103.53516181 -535.428517185754
0.90402115 1.68888476 119.16220668 -535.465424268233
0.88506124 1.68888476 108.71843042 -535.468377248551
0.96446195 1.57091191  79.20196692 -535.440680232470
0.96446195 1.87096749  94.99044652 -535.466111864075
1.26953612 1.68888476  94.51502145 -535.429332029455
0.96446195 1.79908086 131.18537562 -535.448822529659
1.34732368 1.56998869 103.00000000 -535.407306443905
0.92953400 1.94643442 103.00000000 -535.455986588744
1.06386579 1.82650901 103.00000000 -535.462741258008
0.96446195 1.57650367 103.58779219 -535.469446794285
1.34316424 1.62672813 103.00000000 -535.413869618686
0.96585357 1.56968693 103.00000000 -535.468316587989
0.96446195 1.84527714  71.10611284 -535.447826391122
1.10189533 1.68888476 100.12129280 -535.463274712982
1.06670487 1.57068197 103.00000000 -535.460594414489
1.09370903 1.64778125 103.00000000 -535.463823075212
0.96446195 1.72710510 117.54889411 -535.469089636771
0.89015336 1.90043741 103.00000000 -535.455897306295
0.95586056 1.68888476  89.78753172 -535.470777063276
1.30694386 1.51257259 103.00000000 -535.404405642985
0.96446195 1.91930210  97.37656106 -535.461505936495
0.85560633 1.54030268 103.00000000 -535.449381116203
1.19564023 1.68888476 123.80736150 -535.434897334263
1.10848280 1.75940265 103.00000000 -535.460661840268
1.19890790 1.64587300 103.00000000 -535.444673686313
1.22196343 1.68888476  77.35231272 -535.423077012584
0.96446195 1.55084223 116.29754454 -535.463968932820
1.09741815 1.68888476 114.51303895 -535.460361161052
0.96446195 1.72818070 144.01835342 -535.435273729813
0.96446195 1.69019247 122.51137741 -535.466111456181
1.05930012 1.68888476 124.34191075 -535.457439793340
1.46631328 1.68888476  95.04684842 -535.389430033294
0.78545502 1.57555618 103.00000000 -535.423518525465
1.00019283 2.17022020 103.00000000 -535.431041871912
0.96446195 1.73805227  99.08558058 -535.475222701816
1.05906546 1.68888476 107.31272854 -535.469038255809
1.01143953 1.68888476  91.16999074 -535.470303953587
0.84728973 1.68888476  71.81765965 -535.424649647332
1.09469203 1.68888476 123.08464467 -535.453728451500
0.96248277 1.95343934 103.00000000 -535.456691800553
1.18977782 1.51906224 103.00000000 -535.429513113730
0.87488681 1.67550658 103.00000000 -535.467060781717
0.96446195 1.87167154 100.85155288 -535.465949281190
1.26110727 1.61328372 103.00000000 -535.429869736848
1.20005098 1.80556697 103.00000000 -535.441057374257
0.96446195 1.91181299  97.60510533 -535.462270494327
0.94328695 1.56615672 103.00000000 -535.467415988963
1.01116721 1.96550809 103.00000000 -535.453900913168
1.39511636 1.68888476  99.78401741 -535.404897641619
1.08513834 1.86714605 103.00000000 -535.456250833340
1.23358705 1.68888476 124.65545705 -535.426448814201
1.10769901 1.81308031 103.00000000 -535.457422741944
0.96446195 1.74905589  89.85520080 -535.471272132144
1.32666918 1.68888476  87.90553018 -535.413154163526
0.84136178 1.68888476  83.14187533 -535.443870090989
1.04202770 1.91333973 103.00000000 -535.457008906227
0.86916535 1.99191153 103.00000000 -535.440707509458
0.96446195 2.12971681  93.21302718 -535.438190230826
0.80759458 1.68888476 120.21257388 -535.435082548305
1.16821239 1.68888476  84.51210608 -535.442165675396
0.97222654 1.68888476 113.26162730 -535.473276998175
0.96446195 1.80738903  73.33687185 -535.451847308755
0.96446195 1.82937228 104.58624569 -535.469005473274
0.96446195 1.59652402 112.34821112 -535.470984059815
0.97064994 1.99812532 103.00000000 -535.451566308953
1.04228098 1.68888476 114.19090690 -535.468032741100
1.16196380 1.68888476 125.89395847 -535.439122187276
0.96446195 1.64190051  65.61575915 -535.420554072652
0.96446195 1.94272951  76.84960326 -535.450355616910
0.86998495 1.68888476  99.64728191 -535.465541717796
0.96446195 1.49536151  81.62290211 -535.422565180474
0.96446195 1.66742103 106.26100245 -535.475912426544
0.96446195 1.51338385  88.55000187 -535.442390196662
1.12329372 1.68888476  88.97995353 -535.454395483182
0.96446195 1.87241752  92.71039564 -535.465556717686
0.85174803 1.72305444 103.00000000 -535.460203736304
0.96446195 1.99850268  89.71905397 -535.452458166810
1.07833096 2.03010774 103.00000000 -535.439514173930
0.96446195 1.65306910  92.23824906 -535.471170903678
0.96446195 1.75151986 107.22515186 -535.473765848169
0.96446195 1.61871891  84.93596510 -535.459727931976
0.98270969 1.68888476  55.07220166 -535.393016998937
1.06981308 1.68888476  78.71759411 -535.450404368972
0.96446195 1.71314233  67.47194066 -535.436012755197
0.93791510 1.72263815 103.00000000 -535.475091588298
0.96446195 1.74653523  77.32299493 -535.457584305673
0.90446883 1.68888476 107.16722035 -535.471997696811
0.96446195 1.61829040  86.43101773 -535.461751628806
0.96446195 1.70052399 138.48637014 -535.445516507248
1.12263222 1.91599775 103.00000000 -535.445494500881
1.30320111 1.68888476 122.33473536 -535.414590214723
1.06196069 1.68888476 100.48939747 -535.469112840448
0.96446195 2.07061822  95.39865341 -535.444727733468
0.96446195 1.65502998  99.50586244 -535.475138692474
0.96446195 1.54679753 112.98917415 -535.464620264005
0.96446195 1.70278745 108.81795525 -535.475096948467
0.99843710 1.68888476 108.00967037 -535.474564951946
0.96446195 1.61590463  90.50988961 -535.466276183108
0.82285187 1.76025567 103.00000000 -535.447590249966
0.81335053 1.68888476  75.85590983 -535.419389219831
1.12868629 1.68888476  88.14737824 -535.452775066307
1.11328100 1.75389913 103.00000000 -535.460132282074
0.96446195 2.07305406 108.45688732 -535.440264030494
0.76088120 1.57421729 103.00000000 -535.405675677006
0.96446195 1.45651994  78.18016412 -535.396003574810
1.02427979 1.69367216 103.00000000 -535.473415899687
0.95323920 1.68888476 130.01007458 -535.457635221582
0.82165187 1.68888476 129.81650053 -535.431702224335
1.44963535 1.68888476 100.52553984 -535.394254232633
1.06939898 1.68888476 113.02190184 -535.465355179579
1.24113868 1.68888476  92.98380285 -535.434475297913
0.96446195 1.55128977  54.39362082 -535.343330395546
1.19356212 1.77806571 103.00000000 -535.444115901767
0.75874094 1.73562793 103.00000000 -535.408988652607
0.92118052 1.83629484 103.00000000 -535.466675791425
0.85188938 1.73099910 103.00000000 -535.459967929323
0.96446195 1.76552398 120.78529134 -535.463808114417
0.88045283 1.80920713 103.00000000 -535.462707817355
1.11591659 1.68888476 122.83806987 -535.450553763743
0.96446195 1.52333449  83.26500565 -535.436003544845
0.96446195 1.84557468  97.43254129 -535.468528284953
1.20210188 1.55640554 103.00000000 -535.434770941166
1.12461313 1.68888476 146.89962233 -535.415593273035
0.96446195 1.66332821 106.58684237 -535.475798470341
0.96446195 1.67751262  65.07571185 -535.425110209890
0.96446195 2.01883346 121.93291376 -535.436153377945
0.96446195 1.65794813 111.66827486 -535.474199635603
0.96446195 1.58274031 136.87517631 -535.447571814065
1.14663303 1.68888476 119.05510760 -535.448643497964
0.96446195 1.75629947  93.59112258 -535.473119068927
0.94525290 1.53269034 103.00000000 -535.461268317505
0.93066645 1.90497431 103.00000000 -535.460680968383
0.83081465 1.72951793 103.00000000 -535.452459370093
1.14988262 1.81463607 103.00000000 -535.450021022435
0.96446195 2.03451609  92.02417501 -535.448845210355
0.96446195 1.92043373 130.82320774 -535.436817194350
1.08982259 1.70937656 103.00000000 -535.465211993092
1.05617626 1.89449357 103.00000000 -535.457388854147
0.96978272 1.50618127 103.00000000 -535.454975275142
0.88261661 1.79231743 103.00000000 -535.464461464865
0.96446195 1.75926667 139.23520307 -535.440487589852
0.96446195 1.84181835 125.56292558 -535.451839339279
0.93028622 1.44791845 103.00000000 -535.433559315024
1.47726584 1.68490912 103.00000000 -535.389247293817
0.94382710 1.68888476 103.26907181 -535.475886945625
1.45842044 1.58457748 103.00000000 -535.387658521155
0.96446195 1.90468243  74.33673593 -535.450108858543
0.96446195 1.72899713 106.42144632 -535.475041116678
1.14452138 1.68888476  97.86082710 -535.455493127474
1.15379119 1.68888476 104.40590561 -535.454347364308
1.28488280 1.75316583 103.00000000 -535.426585805623
0.71141396 1.76256557 103.00000000 -535.359056766257
0.96446195 1.72306670 109.72556063 -535.474126604815
0.80543774 1.68888476  97.86205032 -535.440624670406
1.03305459 1.68888476  81.66899531 -535.458624466596
0.91335011 2.07818732 103.00000000 -535.438799115110
1.10625626 1.55216668 103.00000000 -535.451640643590
1.01996096 1.48534347 103.00000000 -535.446096343298
0.74792095 1.86714895 103.00000000 -535.388943442062
0.96446195 1.69829993  73.76953220 -535.448805861048
1.07343656 1.47239669 103.00000000 -535.435550974696
0.95242916 2.16246765 103.00000000 -535.432243054755
1.09535054 1.74321465 103.00000000 -535.463452164710
0.73395707 1.47099632 103.00000000 -535.356776462153
1.09267797 1.68888476 132.81949476 -535.442424259572
1.26678070 1.48629015 103.00000000 -535.405126404752
1.17986171 1.68888476 127.87125109 -535.433450864209
0.85913192 1.68888476 137.67342797 -535.434604993873
1.35179296 1.74178685 103.00000000 -535.413042864801
1.29173850 1.84181016 103.00000000 -535.419340601683
1.19514679 1.74881132 103.00000000 -535.445251063128
0.96446195 1.72355825  99.02784350 -535.475596617236
0.99022338 1.94726744 103.00000000 -535.457036986238
0.96446195 1.63284822 131.52974909 -535.456470167203
0.99875037 1.68888476 122.69170837 -535.464903044460
0.96446195 1.77765698 110.28856276 -535.470812571366
0.96446195 1.79127350 121.60909499 -535.460939079010
1.03624830 1.79584290 103.00000000 -535.468235007235
1.10632672 1.68888476  88.13711630 -535.456462027606
1.46055032 1.68888476  95.57188210 -535.390756875439
0.89473916 2.01338465 103.00000000 -535.443699649188
1.17009170 1.68612089 103.00000000 -535.451337143558
0.99273860 1.68888476 115.38426620 -535.471311720622
1.01655854 1.46837618 103.00000000 -535.440463995898
0.96446195 1.77081793 123.32811751 -535.460803736123
0.96446195 1.60766069  63.80148143 -535.406740742020
1.04986770 1.40471485 103.00000000 -535.407259417472
0.94416665 2.02401103 103.00000000 -535.447892630998
1.09907770 1.68888476 147.15856154 -535.419448600586
0.96446195 1.66221249  97.61292064 -535.474779670789
0.99804675 1.68888476 105.20838410 -535.475180961549
1.04198618 1.62614999 103.00000000 -535.469561649794
0.96446195 1.64410240  68.31708651 -535.428886395411
0.96446195 1.84281086  71.26007157 -535.448117756137
1.12219170 1.81763947 103.00000000 -535.454679269740
1.13190548 1.94037593 103.00000000 -535.441322271167
0.79633710 1.61386003 103.00000000 -535.434128518064
0.96446195 1.89634363 114.25174619 -535.457051720237
0.96446195 1.84448543  77.02923818 -535.456192118999
0.96446195 1.57793828 108.37071361 -535.469949366327
0.96446195 1.56516920  72.08588235 -535.421488158311
0.96446195 2.09039881  87.50061005 -535.442083548885
1.06921171 1.68888476 145.91467517 -535.425984954122
1.11101581 1.82554245 103.00000000 -535.455915762267
0.96962987 1.65173530 103.00000000 -535.475614612512
0.98128314 2.03696812 103.00000000 -535.446895140952
1.11869325 1.68888476  82.08437139 -535.448030104941
1.19749761 1.68137166 103.00000000 -535.445930185032
1.17123137 1.54007766 103.00000000 -535.437749476116
0.96446195 1.74355162 124.44902117 -535.461530544529
0.96446195 1.53182072 136.11907749 -535.443059860433
0.96446195 1.82446708 107.66513664 -535.468306366998
1.00317187 1.68888476 104.03323208 -535.474996416959
0.93129360 1.68888476 132.11416508 -535.454032282827
0.96446195 1.78632762  81.40439538 -535.463008206230
0.89972453 1.82666589 103.00000000 -535.464807843698
0.96446195 1.84638004  73.39419085 -535.451293435033
0.91781922 1.77619822 103.00000000 -535.470982484771
0.86508860 1.40056999 103.00000000 -535.399220397996
1.11204216 1.86143867 103.00000000 -535.452643732660
0.86093248 1.68888476  88.05622535 -535.456102474052
1.07896460 1.82824679 103.00000000 -535.460572810105
0.77536358 1.85072920 103.00000000 -535.412988243938
1.17051460 1.68888476 128.07286690 -535.434992344938
1.18365091 1.76894644 103.00000000 -535.446570137462
0.96446195 1.70705381  91.67397994 -535.472686296322
0.96446195 1.87136648 114.49063327 -535.459569533931
0.87668594 1.68888476 104.93861684 -535.467420341850
0.96446195 1.62493190 104.01424880 -535.474350777487
0.96446195 1.69637308  85.49490689 -535.466929599339
0.91713090 1.68888476 124.45523938 -535.461973854716
1.31621898 1.68888476  94.13376402 -535.419360851151
1.02269776 1.68888476 112.17753277 -535.471120882335
1.38188282 1.55961941 103.00000000 -535.398896352722
1.24413182 1.68888476 111.63474370 -535.434343622877
0.96446195 1.79771528  73.11766201 -535.451507998524
0.96446195 1.69539349 106.53551909 -535.475872136518
1.05485060 1.42551501 103.00000000 -535.417893874434
0.96446195 1.89372673 101.98520024 -535.463514871427
0.97797367 1.67278413 103.00000000 -535.476014660689
0.96446195 1.52283414 101.94511988 -535.458818774517
1.00540346 1.92284630 103.00000000 -535.459013450418
0.90099346 1.69267000 103.00000000 -535.471955740757
0.96446195 1.67112579  94.81236082 -535.473785149512
1.16882812 1.68888476  74.01639106 -535.427885658742
1.09226830 1.68888476 104.51353899 -535.464872428447
0.93883788 1.92961770 103.00000000 -535.458541796342
0.96446195 1.82071889  99.51863650 -535.470557139358
0.96446195 1.60574304 102.55102929 -535.472597118930
0.99192657 1.68888476  90.80745724 -535.471145745343
0.96446195 1.65474845  95.67536598 -535.473540549154
0.96446195 1.64862796 124.96762015 -535.464147162294
0.76187528 1.68888476  64.72812482 -535.357229772133
0.97606009 1.73055422 103.00000000 -535.475464407239
0.96446195 1.94067014  81.20851911 -535.454148578140
0.95299892 1.68888476 118.72941173 -535.469453355197
1.00049677 1.68888476  78.54659646 -535.456214828568
1.07083683 1.68888476  97.90161885 -535.467399666608
0.88421018 1.68888476  86.80914330 -535.460409694261
0.96446195 1.92921156 117.92091462 -535.450299419716
0.97161914 1.68888476  84.60549323 -535.465564773457
0.96446195 1.65651281  95.90757142 -535.473752682740
1.36352117 1.68888476 102.81440520 -535.411614851699
0.96446195 1.87843206  90.03936181 -535.464217518522
0.96446195 1.81517009  85.45961496 -535.465841073063
1.07754552 1.68888476 111.97914349 -535.464770065092
0.93344865 2.01052465 103.00000000 -535.448817939874
0.96446195 1.53601932  88.58016257 -535.448984313818
0.87030010 1.68888476 109.48777649 -535.464896922769
1.07030822 1.72549119 103.00000000 -535.467677252610
0.87838159 1.62466075 103.00000000 -535.465985051989
0.96446195 1.57348067  79.18256104 -535.441244508015
0.79055527 1.68888476  91.19690217 -535.428266584730
1.00981251 1.68888476  93.75134251 -535.472082362079
0.96446195 1.86417389  95.94948581 -535.466821582787
1.43961231 1.79426042 103.00000000 -535.392498435768
0.71079666 1.63632097 103.00000000 -535.360539246536
0.96446195 1.71311009 117.90981154 -535.469435483659
1.42580202 1.68888476 112.44044837 -535.397016858853
1.07503483 2.04029921 103.00000000 -535.438779109921
0.96446195 1.77950396 127.81512502 -535.454904811520
1.06929095 1.62488030 103.00000000 -535.466085561430
1.08395025 1.48250775 103.00000000 -535.437546252565
0.84595900 1.94857979 103.00000000 -535.438807899029
0.69428534 1.51511273 103.00000000 -535.322447381232
0.96446195 1.72108496  99.58487088 -535.475731092664
0.96446195 1.80711507 124.04118440 -535.456940789041
0.88074000 1.68888476  77.51038728 -535.446084722278
0.96446195 1.81967267 108.97705413 -535.468117307910
0.97968284 1.68888476  64.51666924 -535.425572603345
0.84345061 1.68888476  59.15113964 -535.384243551273
1.34057799 1.68888476 113.35669122 -535.413554443158
0.96446195 1.68492681 125.29683009 -535.463374570539
0.94490586 1.84532093 103.00000000 -535.467531936368
0.99710915 1.68888476 113.12783254 -535.472465690051
0.96446195 1.71877198 128.82095877 -535.457876640700
0.68910470 1.89472567 103.00000000 -535.316152308689
1.35842899 1.79603111 103.00000000 -535.408829390538
0.84756893 2.01047779 103.00000000 -535.431985813804
0.85853236 1.95137558 103.00000000 -535.442537688777
1.07538337 1.68888476 109.63418827 -535.466111347802
1.09537676 1.69633052 103.00000000 -535.464481267960
1.21603243 1.68888476  90.08769394 -535.437783329793
0.90434404 1.91472975 103.00000000 -535.456698054456
0.96446195 1.45470390  91.77225149 -535.425019285915
0.99736405 1.68888476  99.25041417 -535.474982426141
0.96446195 1.81200248 116.58330851 -535.463759976725
0.96446195 1.60581151 109.93103153 -535.472473109228
0.91520422 1.76511090 103.00000000 -535.471369117132
0.96446195 1.67656657 125.37334577 -535.463491729451
0.86021947 1.76035853 103.00000000 -535.461061226051
0.96446195 2.06326401 117.16806419 -535.435432545047
0.96446195 1.47473111 106.13228977 -535.446582901259
0.96446195 1.68310914 146.00764680 -535.434753205685
1.13418866 1.68397428 103.00000000 -535.457973022110
0.75263968 1.68888476 105.28927932 -535.405064083546
0.85199381 1.42609500 103.00000000 -535.409631231926
0.96446195 1.64281739 105.08095490 -535.475339059335
1.01517594 1.73580803 103.00000000 -535.473338908352
0.96446195 1.79767753  98.38383370 -535.472193417346
1.10781707 1.68888476  81.17609126 -535.448584364927
0.98601212 1.68888476  60.45685441 -535.413142623348
0.96722674 1.52519604 103.00000000 -535.459843830343
1.00049905 1.68888476 116.12733162 -535.470381935237
0.73164785 1.68888476 105.32716998 -535.385006133628
0.96446195 1.80742151 109.26794293 -535.469022883643
0.70146602 1.88425461 103.00000000 -535.334901190571
1.33296931 1.68888476 120.81364847 -535.409911726278
0.96446195 1.85279745 119.91336436 -535.456797728634
0.96446195 1.56142860  71.30429772 -535.418128943784
0.81741047 1.68888476  75.84494148 -535.421342302305
0.96446195 1.98469786 120.28203894 -535.441688820956
0.93273536 1.70971475 103.00000000 -535.475086061997
0.82492968 1.68888476  57.40886525 -535.369610751390
0.96446195 1.63245787 102.05290380 -535.474581132179
1.18383877 1.78144680 103.00000000 -535.445830745185
1.00139031 1.68888476 100.57532540 -535.474988929295
0.96446195 1.84332838 115.06442815 -535.462004332994
1.13885929 1.45793009 103.00000000 -535.419686722029
1.02284717 1.68888476 126.72085855 -535.458795132458
1.12565173 1.68888476 137.60331481 -535.430199763153
0.84606889 1.68888476  94.03081616 -535.456294930372
1.04615210 1.89833265 103.00000000 -535.458137915311
1.36575140 1.70551991 103.00000000 -535.411066674973
0.96446195 1.84669910  84.80335482 -535.463635255550
0.95392093 1.68888476 132.32762171 -535.454656342773
0.96446195 1.61711752 120.67313834 -535.467364273046
0.96446195 1.66710503 142.61174491 -535.440620494046
1.03417786 1.77907257 103.00000000 -535.469538009581
1.27305364 1.66459904 103.00000000 -535.430112402445
0.89110223 1.70801486 103.00000000 -535.470161366345
0.80062055 1.68888476  80.87269027 -535.421801974152
1.02229874 1.73505163 103.00000000 -535.472782249884
1.11437647 1.58323618 103.00000000 -535.455081109672
1.19857274 1.88942292 103.00000000 -535.434162392667
0.96446195 1.85500061 107.12777144 -535.465691403748
0.96446195 1.78135198 102.74494164 -535.473080603285
0.92506121 1.65991874 103.00000000 -535.474372259211
1.09982466 1.68888476  74.38332874 -535.439361111918
0.95912798 1.65829881 103.00000000 -535.475840995193
0.96446195 1.66530680 125.99387396 -535.462997891149
0.93896650 1.54893387 103.00000000 -535.464292014561
0.79828449 1.59867304 103.00000000 -535.433909257075
0.91541315 1.40227383 103.00000000 -535.409038028583
1.06497035 1.68888476  94.10153047 -535.466653672658
0.96446195 1.69232317  72.94635452 -535.446586081419
1.06325742 1.96273041 103.00000000 -535.449175381394
0.96446195 1.60150654 105.22772653 -535.472552527332
0.96446195 2.05071636 117.84292083 -535.436298534956
1.24605549 1.68888476 115.61109050 -535.431704173125
0.96647664 1.53100496 103.00000000 -535.461172928466
0.96446195 1.62339392  62.50196068 -535.406089000921
0.96446195 1.74269607 123.56743550 -535.462541742831
0.94316985 1.68888476  92.10027520 -535.472148309962
1.03159423 1.67264999 103.00000000 -535.472583815511
0.85488350 1.68888476  93.14305997 -535.458570301204
0.97516976 1.68888476 122.74876472 -535.465788921667
1.19738190 1.68888476  83.48554433 -535.435490953852
0.93486317 1.50031958 103.00000000 -535.452612277408
0.96446195 1.76957072 123.23898632 -535.460995639102
0.96446195 1.49998117 119.68799842 -535.452234140864
0.96446195 1.71319629  83.64888532 -535.465360986540
0.96446195 1.79853341  75.87790045 -535.455768201219
0.96446195 1.71949542  80.93395770 -535.462073113390
0.96446195 1.83088140  58.48581062 -535.420878951502
0.94517198 1.63771244 103.00000000 -535.474687479329
1.01035393 1.68888476 112.65572844 -535.471872713328
1.40189484 1.62826264 103.00000000 -535.402123617832
0.96446195 1.86763045  89.42080913 -535.464844491055
1.00676208 1.68888476 129.37760925 -535.456900225863
0.96446195 1.55305747  93.30566181 -535.459010953165
0.96446195 1.77967558 137.90457401 -535.440827289221
0.96446195 2.02530058  88.87547878 -535.449406868908
0.96446195 1.70060609 118.01505236 -535.469808167084
0.96446195 1.59445225 144.61339566 -535.437379647124
0.89019728 1.68888476 116.53594893 -535.465289113978
1.02852060 1.72491923 103.00000000 -535.472538479956
0.97642344 2.12748712 103.00000000 -535.436465519068
0.71942060 1.68888476 106.57505446 -535.371394585683
0.96446195 1.87161825 134.55727827 -535.436864255825
0.97943405 1.68888476 128.28266982 -535.459599954456
1.08697920 1.68888476 128.49620523 -535.448863066978
0.96446195 2.05425172  90.00177593 -535.446446608726
1.01674206 1.68888476 112.46448493 -535.471479601177
0.96446195 1.55968916 113.75164747 -535.466335823910
0.97627840 1.68888476 111.03170369 -535.474327182522
0.79809770 2.01120242 103.00000000 -535.409291690855
0.96446195 1.79512913 101.15824046 -535.472343136389
0.96446195 1.53636281 141.69069442 -535.436475132102
0.94449436 1.93091039 103.00000000 -535.458701716187
1.11592230 1.54500958 103.00000000 -535.448703543011
1.02043844 1.75121647 103.00000000 -535.472287934763
1.18410704 1.68888476  89.61765004 -535.443773729932
0.93319431 1.68888476 117.92578256 -535.469285644093
0.98032908 1.68888476  79.64591553 -535.458598414879
1.04394915 1.68888476 110.94268889 -535.469568137440
1.18968787 1.68325570 103.00000000 -535.447497428421
1.15317255 1.68888476  74.53497178 -535.431393318545
0.96319421 1.56059083 103.00000000 -535.466892502738
0.87667291 1.76422950 103.00000000 -535.465024026285
0.96446195 1.68154343  88.74472405 -535.469672235431
0.98174324 2.09650623 103.00000000 -535.439936238997
0.96446195 1.63066048 125.32568030 -535.463523027333
0.96446195 1.70557168  65.80814296 -535.430902934250
1.14769214 1.68888476  72.89146168 -535.429541738754
0.92140432 1.68888476 102.24265764 -535.474383470816
1.02556826 1.68888476 115.59033174 -535.468831260443
0.95327661 1.68888476 123.77443299 -535.464784114241
1.19752129 1.67069104 103.00000000 -535.445762375389
0.96446195 1.91844103 107.31046007 -535.458922641629
1.00447639 1.68888476  88.83971390 -535.468874486819
1.50591122 1.72228127 103.00000000 -535.383423415676
1.03501285 1.68888476  72.67451393 -535.443355714873
1.37307429 1.68888476  88.94113590 -535.404333989697
1.21921077 1.67810273 103.00000000 -535.441510806792
0.96446195 1.72755482  83.47899843 -535.465493018133
1.12108523 1.49802330 103.00000000 -535.436499500215
0.79917827 1.68888476 121.68116365 -535.429244440119
0.96446195 1.71906202  82.60489858 -535.464249699767
0.96446195 1.60934291 108.70604081 -535.473000933569
0.96446195 1.53014843 103.99690813 -535.461354182531
0.96446195 1.70403465 122.53073058 -535.465622813493
1.36560887 1.73603773 103.00000000 -535.410389893120
0.93115658 1.94383492 103.00000000 -535.456412060090
1.11887191 1.68888476 104.93100989 -535.460517757876
0.96446195 1.96574379 117.25920138 -535.446664209888
0.96446195 1.82988144 115.77904668 -535.462751184319
0.96446195 1.68897296 117.08242887 -535.470843150358
1.11551927 1.68888476  95.76842033 -535.459851628363
1.07096888 1.69376197 103.00000000 -535.468059884918
0.94588371 2.07854971 103.00000000 -535.441545284755
0.97167017 1.68888476 131.13534361 -535.456215009374
1.21465219 1.68888476 118.50699847 -535.435972334262
0.93499171 1.68888476 133.33061556 -535.452635342222
1.11971750 1.68888476  93.41696698 -535.458028632194
0.94237899 1.68888476 102.47775987 -535.475817634133
0.96446195 1.53562755  69.58196697 -535.404228909384
0.77498423 1.76996633 103.00000000 -535.419570669538
0.98880136 1.68888476 121.20725807 -535.466831244663
1.14472410 1.90791563 103.00000000 -535.442500533210
1.19327599 1.68888476  87.70666066 -535.440437643051
0.87684058 1.83875920 103.00000000 -535.459350934708
1.34477260 1.68888476  85.35653762 -535.407164088100
0.96446195 1.90291766  93.95378052 -535.463002879460
0.87763967 1.68888476  87.95201466 -535.460217310295
1.20241703 1.68888476 104.97663275 -535.444848905848
0.96446195 1.81675940 147.54239014 -535.421637913143
0.98652520 1.68888476 103.23420719 -535.475870982265
0.96446195 1.78082906  79.61505452 -535.460976486896
0.96446195 1.74219430 120.62012036 -535.465547693257
1.01607572 1.68888476 143.01072308 -535.436690511780
0.96446195 1.62871961 103.51542851 -535.474551801772
1.24983844 1.85088733 103.00000000 -535.427318051328
1.25068607 1.73019776 103.00000000 -535.434566943258
0.96446195 1.98200506  85.13940606 -535.452662149259
0.96446195 1.81555383 111.55056974 -535.467059006261
0.96446195 1.71215237  69.35719183 -535.440450578175
0.88925459 1.82358806 103.00000000 -535.463278054336
0.96446195 1.80369885 131.03542800 -535.448602549485
0.96446195 1.61304655 106.85459640 -535.473512608112
1.05770549 1.66494307 103.00000000 -535.469481531344
0.94511761 1.89866075 103.00000000 -535.462241252773
1.09607060 1.68888476 111.34736839 -535.462307749295
0.87974565 1.68888476  92.91708328 -535.464837970889
1.03696781 1.86089997 103.00000000 -535.462790216538
0.99209886 1.72401822 103.00000000 -535.475141441662
0.77264823 1.71386024 103.00000000 -535.420623381942
0.96446195 1.55257385 113.30549491 -535.465442799708
0.95482203 1.68888476  97.76307978 -535.475384444414
0.96446195 1.72443354 129.26172749 -535.457011105522
1.15081424 1.68888476  80.95570627 -535.441160745340
1.13885786 1.59889071 103.00000000 -535.452648901930
1.01536137 1.68888476  82.14339056 -535.460688896897
0.97067090 1.54968566 103.00000000 -535.464924563830
0.96446195 2.12356343  85.41839242 -535.438087845767
0.96446195 1.76097255 108.01690591 -535.472941639647
0.91074594 2.15838245 103.00000000 -535.429235903066
0.96446195 1.96460357  89.80227258 -535.456027372063
1.15621431 1.68888476 112.00045894 -535.451598798384
1.17157109 1.68888476 100.32581506 -535.450921740737
0.96446195 1.96003073 109.20973479 -535.453160446881
1.03720481 1.68888476 106.45698866 -535.471777746855
1.12082166 1.68888476 131.73004177 -535.439332466769
1.07151823 1.68888476 116.81302300 -535.462616770594
0.93997842 1.46243827 103.00000000 -535.440066113224
0.96727704 1.68888476 107.60811506 -535.475674241802
1.27095340 1.58835318 103.00000000 -535.425336861575
1.26726137 1.50474271 103.00000000 -535.410381155844
0.97136730 1.69167377 103.00000000 -535.476254143250
1.02265994 1.68738545 103.00000000 -535.473560363305
0.90597806 1.72757044 103.00000000 -535.471957337997
1.29890613 1.68888476  94.43393424 -535.423134540655
0.96446195 2.02070144 119.70376589 -535.438084458560
0.96446195 1.92307453 127.02887580 -535.441348196306
1.03266585 1.47623876 103.00000000 -535.441828731051
0.98414845 2.11250064 103.00000000 -535.438048188561
0.90846194 1.82312899 103.00000000 -535.466366734591
0.84343658 1.68888476  79.71015523 -535.439320967433
0.92621603 1.78202779 103.00000000 -535.471398556285
1.04000735 1.65461038 103.00000000 -535.471244743145
0.94691390 1.68888476  87.62438954 -535.468506567349
0.75786127 1.68888476  82.87953661 -535.395295483779
0.96446195 1.47319932 106.20318913 -535.446077248715
0.96446195 2.04699811  92.24486814 -535.447463690129
1.07470788 1.53467206 103.00000000 -535.452991611970
1.04318243 1.68026202 103.00000000 -535.471466764108
0.96446195 1.70665305  74.29842423 -535.450493871117
0.69936740 1.86608102 103.00000000 -535.334048296222
0.94174007 1.68888476  63.08564651 -535.419361920452
1.15683888 1.68888476  93.59447023 -535.451517029065
0.80487194 1.68888476  94.84817685 -535.438969415617
1.39572381 1.68888476  88.97217623 -535.399728441792
0.96446195 1.79012373 106.36189452 -535.471599680230
0.96022601 1.68888476  67.25852232 -535.432600590402
0.96446195 1.54268451  75.73616375 -535.424716639271
1.00849721 1.68888476 127.60880215 -535.458920306689
0.96446195 1.98300461 123.60084698 -535.438502262367
1.45626246 1.78657058 103.00000000 -535.389744142070
0.96446195 1.96579934  94.23084641 -535.456555841867
1.08037716 1.68888476  74.76205314 -535.442595163189
0.93871125 1.68888476 120.69370725 -535.467265724077
0.96446195 1.68955214 105.61393407 -535.476095122267
1.13939518 1.68733424 103.00000000 -535.457062336041
0.87627810 1.68888476  71.48291368 -535.432326829810
1.09332919 1.90468305 103.00000000 -535.451329721952
0.96911792 1.61949176 103.00000000 -535.473822856579
0.82641159 1.68888476 101.61780215 -535.451457415686
0.76950934 1.83234394 103.00000000 -535.410465197769
1.10387384 1.68888476 101.23301892 -535.463085754640
1.50510886 1.68888476 102.00286348 -535.384070855839
1.17243041 1.51213470 103.00000000 -535.431112957577
1.12013433 1.68888476  65.11573706 -535.418091439195
1.02888726 1.86334967 103.00000000 -535.463330179416
0.96446195 1.60331560 119.33608275 -535.467643030945
0.93393520 1.68888476 105.46329382 -535.475208561192
1.04336812 1.68888476 106.72471056 -535.471052625167
1.08441409 1.68888476 112.70162296 -535.463397311456
0.97065214 1.68888476 139.47027281 -535.444516798591
1.03749785 1.58208620 103.00000000 -535.465721517590
0.96446195 1.78156807  66.64786601 -535.438733094207
0.96446195 1.61275038  90.39618367 -535.465780095695
0.84694522 1.81194650 103.00000000 -535.453286704769
1.12495839 1.68888476 119.66684980 -535.451971058072
0.96446195 1.89628457  82.07746371 -535.458257826208
0.96446195 1.82457319  69.17641056 -535.444702051834
0.90109352 1.86271801 103.00000000 -535.461666955286
0.92929929 1.77785922 103.00000000 -535.471917422831
0.87485489 1.62219506 103.00000000 -535.465041565480
1.12230376 1.68888476 116.82021688 -535.454701723816
0.96446195 1.58448047 107.22510931 -535.470793283123
1.29109677 1.68888476  82.67299952 -535.415625275558
0.92027400 1.68888476  76.71691908 -535.451030724100
0.96446195 1.53689144 110.05898964 -535.463427594967
0.83356861 1.68888476 127.78553713 -535.439050591425
1.03724536 1.68888476 133.93975619 -535.448190419105
0.96446195 1.44144316  90.88648966 -535.417166045264
0.96446195 1.55888169  83.45372802 -535.446235315069
0.96446195 1.88437792 120.97290897 -535.452391961665
1.40699571 1.74881135 103.00000000 -535.401477223218
1.11095595 1.68888476 100.58724189 -535.461867065918
1.00469458 2.10564747 103.00000000 -535.438038991297
1.14389312 1.62726960 103.00000000 -535.454176916975
0.90671681 1.68888476  90.39136208 -535.467634806235
0.81515367 2.06834225 103.00000000 -535.411514531485
0.94284108 1.84324207 103.00000000 -535.467626676231
0.84297861 1.68888476  75.99014433 -535.432296253088
1.08354908 1.68888476  82.48738871 -535.453831866150
1.04227140 1.68888476 110.46425553 -535.469963472143
1.33266734 1.65563435 103.00000000 -535.417425040667
0.96446195 1.85490990 121.55825722 -535.454928711973
0.96446195 1.89991301  79.31183765 -535.455665102799
0.98629636 1.86312484 103.00000000 -535.466031407702
0.96446195 1.65196198 111.26944549 -535.474263271703
0.76007599 1.58645038 103.00000000 -535.406554880519
1.45962492 1.68888476 107.89199102 -535.392086457739
0.77848603 1.68888476  82.02075596 -535.409746456384
0.96446195 1.75432847  97.34454466 -535.474354447934
0.96446195 1.52334922 117.06704525 -535.458787458408
0.96446195 2.02393740 110.16619793 -535.445057855259
1.23746298 1.72890763 103.00000000 -535.437343869647
0.99031340 1.49881634 103.00000000 -535.452259527058
0.76627851 1.53758131 103.00000000 -535.403753695948
1.11066133 1.68888476 104.75645853 -535.461914442452
1.03356114 1.68888476 123.08881782 -535.461695348718
0.87466071 1.67088676 103.00000000 -535.466956573342
0.86382871 1.68888476  59.90174190 -535.393974225612
1.07395519 1.72376010 103.00000000 -535.467222706096
0.95672846 1.68888476  99.85713991 -535.475950080291
0.75074350 1.68888476  94.57953605 -535.400934807567
1.07280415 1.68888476 134.98661102 -535.442321831972
1.11661381 1.63276254 103.00000000 -535.459327589033
0.86417569 1.68888476  78.78089704 -535.444261164925
1.12984907 1.68888476 102.16271266 -535.458762815879
0.85190537 1.84657906 103.00000000 -535.451815280867
0.97889994 1.66125905 103.00000000 -535.475748367570
0.96446195 2.08841124  85.19420653 -535.441732548551
1.36867875 1.68888476 100.06512510 -535.410327011437
1.05886613 1.68888476 116.88698588 -535.464237307677
1.07067280 2.23340165 103.00000000 -535.418115418258
1.12035697 1.68888476 138.55360317 -535.429673515667
1.05701968 1.68888476  79.16015136 -535.452582070500
0.96446195 1.88349063 135.68986545 -535.433948580116
0.96446195 2.20103481  98.02331488 -535.429780035251
0.96446195 1.58489352  97.51730382 -535.468067401170
0.96446195 1.60676990 112.80595432 -535.471615064225
0.96446195 1.62505402  88.16948632 -535.464748328470
0.96446195 1.69162122  94.16830822 -535.473979119853
1.03008168 2.01714598 103.00000000 -535.446486155298
1.47536870 1.69635005 103.00000000 -535.389551591369
0.97459378 1.59855021 103.00000000 -535.471856901122
0.96446195 1.50669661  89.86901997 -535.442301367289
0.96446195 1.72543984  86.00095123 -535.468177478617
1.17578122 1.68888476 108.16241459 -535.449414856367
0.96446195 2.00076067  95.51924232 -535.452689004477
0.96446195 2.11705297 119.64900912 -535.427417680884
0.77558451 1.52788730 103.00000000 -535.408490653007
0.90693426 1.68888476  70.80200327 -535.436669999286
0.93420461 1.96803424 103.00000000 -535.453859531917
1.18599234 1.68888476  88.56169923 -535.442577706713
1.02094205 2.23952770 103.00000000 -535.422552305122
1.11895928 1.68888476 109.45227487 -535.459369757167
0.99594301 2.15305333 103.00000000 -535.433109885803
0.89268371 1.68888476 133.83980464 -535.447349815287
0.96446195 1.84305256 107.51475968 -535.466670109908
1.26174438 1.68888476  86.76963705 -535.425741948360
1.22856621 1.68888476 103.97135618 -535.439641263687
0.82259337 1.66232286 103.00000000 -535.449711757647
1.30376103 1.68888476 107.06101086 -535.423543160241
0.96446195 1.79276332  83.52697406 -535.465042891860
0.87739189 1.68888476 118.72840925 -535.461097703605
0.91678623 1.84001064 103.00000000 -535.465882400923
0.97801891 1.59218320 103.00000000 -535.471081068991
1.00161470 1.69597343 103.00000000 -535.475114624398
0.88755883 1.68888476 129.01295212 -535.452651291482
0.99986936 1.68888476 129.69780735 -535.456948351766
0.99509817 1.68888476 100.17259623 -535.475275064363
1.18059827 1.68888476 117.41735950 -535.443547882194
1.15279327 1.68888476  87.63276637 -535.448054363126
0.95425022 1.68888476 112.85660202 -535.473478242590
0.96446195 1.63768356  96.21693572 -535.472798344672
0.96446195 1.87099651  67.14424388 -535.440664259314
1.02490015 1.68888476  92.49648331 -535.470139601942
0.91124580 2.03098685 103.00000000 -535.444129677478
1.25529517 1.67551007 103.00000000 -535.434034845346
0.76543747 1.68888476 100.58863205 -535.415418585664
0.96446195 2.04514818 120.32871735 -535.434718103475
0.96446195 1.87113104 130.16990278 -535.443018760719
0.96446195 1.78666594  95.31063712 -535.472365937582
0.96446195 1.59210600 144.84250017 -535.436944453492
0.83976946 1.87247716 103.00000000 -535.445041553220
0.76675000 1.68888476  66.94119434 -535.367895474595
0.87238772 1.68888476 137.77559751 -535.437831862304
0.85520389 1.68888476  68.20165840 -535.417996907790
1.08550027 1.87045588 103.00000000 -535.455884507296
0.96446195 1.71174714 111.70067384 -535.473603153047
0.96446195 1.74379475  91.62528484 -535.472470669245
1.20915250 1.68888476 120.96452947 -535.434976484993
0.81261257 1.68888476  89.59251454 -535.439092581061
0.86406648 1.68888476 105.76379093 -535.464240720254
0.96446195 1.61450277 148.82872238 -535.431719496711
0.96446195 2.05574881  85.62376487 -535.445303989876
1.12156044 1.68888476 116.59925374 -535.454989979066
0.96446195 1.54033745 121.58595288 -535.459113216931
0.96446195 1.52426393 135.39196279 -535.442750302130
0.96446195 1.74480631 140.56539442 -535.439541350198
0.96446195 1.86599177 116.77929995 -535.458286027533
0.96446195 1.52059054 129.84888755 -535.448368676092
1.22493945 1.63810023 103.00000000 -535.439023734202
0.96446195 1.52652812 105.35263770 -535.460937291474
0.96446195 1.77379548 102.94780774 -535.473521521175
0.96960702 1.68888476  95.77772522 -535.474710927799
1.22418487 1.72087152 103.00000000 -535.440274343921
0.86798012 1.68888476 115.93845699 -535.460972171557
0.87502314 1.86577703 103.00000000 -535.456325680547
0.92133715 1.93436674 103.00000000 -535.456603966339
1.18502034 1.68888476 123.25440441 -535.437532410980
0.98085246 1.68888476 122.83715352 -535.465554450370
0.89874117 1.89582645 103.00000000 -535.457889352705
0.67180133 1.85122098 103.00000000 -535.293340219652
0.96446195 1.81763801 130.27567736 -535.448309393458
1.01671175 1.93482371 103.00000000 -535.456951607134
0.98584484 1.84707058 103.00000000 -535.467547385579
1.27219162 1.62236045 103.00000000 -535.428274741656
0.96446195 1.63224845 132.36841777 -535.455404634847
0.86820208 1.68888476  83.76500024 -535.453017887965
1.02129787 1.83928120 103.00000000 -535.466181881940
0.96446195 1.68387036  80.90297008 -535.460239028860
0.94065473 1.68888476  92.06321299 -535.472001725025
1.00127265 1.89871780 103.00000000 -535.461815635872
0.75598297 1.69491812 103.00000000 -535.407938029037
0.96446195 1.71535099 142.01517080 -535.439293944860
0.90287608 1.68888476  77.43607734 -535.450076487118
1.20446950 1.68888476  82.75342789 -535.433290324056
0.96959117 1.68888476  71.86117621 -535.444000186348
1.09826226 1.68888476  78.53177583 -535.446302694416
0.99936573 2.00835071 103.00000000 -535.449630629651
0.78808432 1.83700058 103.00000000 -535.422931322131
0.96446195 2.03593979  99.26711853 -535.448157677053
1.16654197 1.76175885 103.00000000 -535.450235907513
1.21118350 1.68888476  89.41401572 -535.438263865331
0.96446195 1.52081161  95.01557515 -535.453036201375
1.14304843 1.60327537 103.00000000 -535.452338748252
0.96446195 1.51255057  84.99240119 -535.435887165922
1.00337205 1.68888476 109.04534774 -535.473940264060
0.73999588 1.66344806 103.00000000 -535.393445497069
0.93375333 1.68888476 104.27536889 -535.475322152472
1.01185935 1.68888476 103.86498015 -535.474411104172
0.86573770 1.68888476 136.00257807 -535.438731351359
0.76194494 1.68888476 115.11816956 -535.409189940254
0.87464887 1.68888476 125.59283801 -535.453946791747
1.08392023 1.89493029 103.00000000 -535.453702327901
0.96446195 1.48633704 117.85872672 -535.449541171271
1.34200501 1.77029003 103.00000000 -535.413784658928
0.72857004 1.68888476 144.60339586 -535.344219800540
1.00722092 1.68888476  91.98235406 -535.471162056747
0.96446195 1.88585139  93.84222269 -535.464593625354
0.89584815 2.07118922 103.00000000 -535.437001707008
0.90851981 1.68888476 101.73244098 -535.472939949973
0.95769560 1.64217818 103.00000000 -535.475207993540
0.86992808 1.81103122 103.00000000 -535.460110717396
0.98730720 1.71620594 103.00000000 -535.475538069546
0.84553558 1.48133307 103.00000000 -535.430601293433
0.99989552 1.79418725 103.00000000 -535.471219208031
1.36398088 1.79626156 103.00000000 -535.407664278983
0.96446195 1.59952821  61.95324706 -535.397668535956
1.11752948 1.68888476  99.71053302 -535.460643526984
1.46350843 1.68888476  97.53336585 -535.390903906379
0.96792308 1.73298976 103.00000000 -535.475480581677
1.32235763 1.68888476 114.60996395 -535.416591632677
1.04923028 1.68888476  60.92840141 -535.413469979862
0.96446195 1.72076535  67.66767058 -535.437207655107
0.91238949 1.75391367 103.00000000 -535.471651741916
1.09838701 1.68888476 105.56732001 -535.463781402699
0.91182675 1.68888476 108.48894406 -535.472573471003
0.96446195 1.55895387 130.83181943 -535.452906728117
0.91801183 2.03989224 103.00000000 -535.443892466400
1.01313701 1.68888476  62.35207875 -535.419092181786
0.96446195 2.13099374  91.80819107 -535.438072820820
1.07241727 1.50563232 103.00000000 -535.446212132198
0.96446195 1.49475932 117.72809281 -535.451888664058
0.96446195 1.93681021  96.50271794 -535.459693552885
0.96446195 1.93183549 111.72876059 -535.454858145876
0.96446195 1.81642821 130.21284472 -535.448508734589
0.94172402 1.55343308 103.00000000 -535.465234609706
1.08497572 1.68671760 103.00000000 -535.466055045990
1.12118055 1.68888476 105.74280499 -535.460002236924
0.96446195 1.56565330 120.86183876 -535.463130301420
1.11744255 1.68888476  94.45630005 -535.458946916504
0.76192287 1.68888476  74.73231732 -535.383931481337
0.92790283 1.68888476  96.19176163 -535.473503677673
0.87315468 2.08346764 103.00000000 -535.430764062260
0.96446195 1.72386078 109.11337387 -535.474348331575
0.96446195 1.88832267 118.45403142 -535.454399068910
1.17498739 1.68888476 119.80111627 -535.442700385240
0.96446195 1.70525709  83.78561994 -535.465266269477
0.83754513 1.75589445 103.00000000 -535.453852320941
0.88544233 1.68565017 103.00000000 -535.469330740917
1.16604877 1.82873965 103.00000000 -535.445917665029
0.96446195 1.75782867  97.45270869 -535.474233959833
0.96446195 1.89766285  71.84703703 -535.447255841489
1.00035132 1.74429044 103.00000000 -535.474009144461
1.09389912 1.68888476 109.73458470 -535.463334729446
0.96446195 1.72699560  90.68848994 -535.472084535593
1.03966023 1.89910679 103.00000000 -535.458742554958
0.83549851 2.18861892 103.00000000 -535.406668493087
1.03022504 1.65578239 103.00000000 -535.472292989725
1.16050217 1.68888476  82.36782134 -535.441170371312
0.96446195 1.68981975 118.95491559 -535.469348691816
0.86357458 1.95621237 103.00000000 -535.443427018542
0.83083910 2.15391667 103.00000000 -535.408620287942
0.96446195 1.55872726  70.93098825 -535.416200889147
0.96446195 1.64561350  96.94627655 -535.473686386830
1.05226390 1.68888476 119.92220496 -535.462600259354
0.96446195 1.91296777 108.98453896 -535.458665136469
1.23630111 1.68888476  83.15131385 -535.427386596532
0.96446195 1.63252495 104.67247047 -535.474840896670
0.99230170 1.68074613 103.00000000 -535.475594878142
0.96446195 1.79666202 103.46617042 -535.471909137455
0.96446195 1.89619627  95.00229986 -535.463771456266
1.50844238 1.68888476  97.91147302 -535.382664809558
0.88557390 1.68888476 112.27824091 -535.467022038281
0.96446195 1.53369969 145.41389104 -535.431046634366
0.86839787 1.68888476  72.92960819 -535.433693229405
1.03003655 1.68888476  74.14216648 -535.446609336241
1.22344462 1.68888476  84.69257313 -535.431602806233
0.89425022 1.68888476 149.74212611 -535.423921210159
1.48096040 1.68888476 115.60077686 -535.385127803802
0.90457625 1.68888476  73.06789142 -535.441541309096
1.10465414 1.79888724 103.00000000 -535.458937087128
1.07443095 1.68888476 141.85463039 -535.431764493226
0.90341594 1.78858712 103.00000000 -535.468366002951
1.04325858 1.55562823 103.00000000 -535.461065868967
0.96135897 1.68888476  77.75978191 -535.455465469095
0.96446195 1.91202517 115.74139980 -535.454126139892
0.98037413 1.68888476 114.42172974 -535.472411862403
0.96446195 1.78205672  72.41842479 -535.450184792988
0.96446195 1.97543082 102.66338502 -535.454296357244
0.96446195 1.91695567  77.47076962 -535.452768864588
1.17407682 1.68888476 107.64989790 -535.449891444587
0.96446195 2.01215646 100.92184482 -535.450535121236
0.96446195 1.69240169 110.63783209 -535.474584419640
0.96446195 1.49169231  72.85968224 -535.397044620315
0.75978926 1.68888476 131.03597016 -535.392172426287
0.93818206 1.68888476 127.83948097 -535.459766898019
0.96446195 1.49924894 127.59799045 -535.446162013941
0.96446195 1.61813367  76.16556308 -535.443776878239
0.96446195 1.60200273  89.25112665 -535.463084506159
0.91132441 1.68888476 118.80163294 -535.466643700962
0.96446195 1.95088497 113.06796911 -535.451730045719
0.99441746 1.82753201 103.00000000 -535.468925133755
0.96446195 2.03165628  85.12064835 -535.447644746442
0.86297026 1.68888476 147.53491918 -535.420866488700
0.96446195 1.60335466  84.24732594 -535.456432209936
0.96467324 1.84100847 103.00000000 -535.468394229794
0.99752084 1.57347983 103.00000000 -535.467856740130
0.96446195 1.49759970 120.92531422 -535.450920157180
1.35309919 1.68888476 110.41549142 -535.412326336072
1.45237271 1.72853667 103.00000000 -535.393274373551
1.08122561 1.73794283 103.00000000 -535.465758210841
0.94095704 1.85001023 103.00000000 -535.466906733284
0.96446195 1.84858903 107.92798395 -535.465951504438
0.91398437 1.54964800 103.00000000 -535.462508970821
1.20355814 1.68888476 107.46920015 -535.444131183861
0.80952860 1.68888476  96.74735544 -535.442319447264
0.78533891 1.93461141 103.00000000 -535.410608957673
1.32720672 1.75391715 103.00000000 -535.417673961291
1.04750338 1.68888476  83.02129484 -535.458962169530
0.89456167 1.68888476  85.84665104 -535.461256482729
0.91602505 1.81284541 103.00000000 -535.468135539563
1.14672122 1.74840861 103.00000000 -535.454533247089
0.96446195 1.60659091 105.99673714 -535.473028614274
0.98579237 1.68914685 103.00000000 -535.475901080711
0.96446195 2.10551827 115.08876695 -535.432292145970
0.96446195 1.66822281  81.78918733 -535.460391864953
1.04735270 1.60333163 103.00000000 -535.467049402118
0.96446195 1.77226157 121.78786325 -535.462302533375
1.31526220 1.67806437 103.00000000 -535.421542744530
0.98189715 1.45903966 103.00000000 -535.438894360959
1.17617841 1.56884568 103.00000000 -535.441847676075
1.07833213 2.20840063 103.00000000 -535.419664897095
1.22302097 1.68888476 110.73541597 -535.439070181156
0.96446195 1.95667404 117.18379890 -535.447784647184
1.30850105 1.68888476  83.37320011 -535.412753598787
0.96446195 2.13401349  99.20868183 -535.436855268334
0.84774977 1.65919206 103.00000000 -535.459276173654
1.00168877 1.68888476 105.41423676 -535.474940435883
1.26501168 1.79124570 103.00000000 -535.428696603720
0.97333400 1.69541002 103.00000000 -535.476211221421
1.19317272 1.68888476  93.84564619 -535.444655529473
1.12239768 1.68888476 125.01500660 -535.447188621783
1.22589693 1.68888476 122.21845682 -535.430450275878
1.04977444 1.68888476 104.76584733 -535.470648627862
0.94118927 1.45777200 103.00000000 -535.438269805847
1.07644675 1.68888476 120.15496969 -535.459214259758
0.96446195 1.88900679 114.29995362 -535.457819607278
1.27139531 1.72668858 103.00000000 -535.430341171906
1.07143841 1.68244259 103.00000000 -535.467960739354
0.96446195 1.58188034  89.35216769 -535.460025055804
0.94579852 2.08262760 103.00000000 -535.441063905259
0.82991225 1.47246849 103.00000000 -535.421823619771
1.23585263 1.68888476 117.68864741 -535.432319598503
1.12424231 1.68888476  81.04619877 -535.445803962863
0.87153124 1.68888476 140.58496369 -535.433525385005
0.98388256 1.51546862 103.00000000 -535.457087256864
0.96446195 1.79113551 134.97728575 -535.444196086433
1.06198659 1.68888476  94.60758210 -535.467293629633
1.13706590 1.68888476  99.98168364 -535.457289934575
0.96446195 1.83473005  73.12376800 -535.451168982590
0.96446195 1.87700439 135.76642592 -535.434520116381
1.29075279 1.67829701 103.00000000 -535.426668937291
1.01660048 1.82314303 103.00000000 -535.467920159239
1.04459056 1.68888476 132.85989280 -535.448861286105
0.96446195 1.62022623  67.91686399 -535.423068638978
0.77284784 1.68888476  64.19991572 -535.364002344031
1.05163678 1.68888476  79.59276147 -535.453821493950
1.04835337 1.56617826 103.00000000 -535.462225025310
0.98941726 1.72521351 103.00000000 -535.475223566423
0.80749115 1.68888476 107.63857359 -535.442148105341
1.09726778 1.48389772 103.00000000 -535.435993519948
0.96446195 1.76657463  83.17988066 -535.465245431711
0.96446195 1.62198507  57.67408913 -535.386522815535
0.80570622 1.68888476 137.36871143 -535.414046866925
0.96446195 1.86035506 119.70253857 -535.456217714998
1.29508116 1.68888476 100.64422256 -535.425720632457
0.96446195 1.68989521 112.17670446 -535.473903332022
1.03122837 1.63605184 103.00000000 -535.471308470581
0.87874869 1.68888476 110.15646088 -535.466581634803
0.96446195 1.98149121  89.64700715 -535.454239367693
1.02719462 1.62623725 103.00000000 -535.471089170778
0.93723189 1.68888476  99.64225372 -535.475221459522
0.82171817 1.68888476 102.85787832 -535.449503983616
1.07102379 1.68888476 103.19508389 -535.468047181026
0.86016110 1.83314900 103.00000000 -535.455573317623
1.25271503 1.68888476 118.98844735 -535.427855657139
1.14859123 1.68888476 133.76732067 -535.431677873575
1.00894941 1.68888476 120.91634861 -535.465936682282
0.96446195 1.80986763  60.24135026 -535.424502818212
0.75040520 1.68888476 128.61010311 -535.387137621311
0.93521320 1.85813475 103.00000000 -535.465796559380
1.04253441 1.85677346 103.00000000 -535.462600803216
1.48993351 1.71596573 103.00000000 -535.386519100681
0.90760897 1.68888476  75.67570083 -535.447437168774
1.09438999 1.65601223 103.00000000 -535.464039354485
0.70890453 1.70049869 103.00000000 -535.358722938343
1.07607388 1.87397928 103.00000000 -535.456874038271
0.96446195 1.44497730  97.79450595 -535.428639940774
1.19286713 1.68888476 124.37839812 -535.434846655566
0.96446195 1.74031810 100.24843084 -535.475258280316
0.92593240 1.71922596 103.00000000 -535.474363430059
0.96446195 1.63797420 102.32357664 -535.474944275260
1.36833496 1.68888476  93.06005660 -535.407968570313
0.88554863 2.05383714 103.00000000 -535.437104216644
1.20524222 1.68888476 114.79060712 -535.440512334827
1.13138896 1.68888476  90.68344775 -535.454309133630
0.96446195 1.82306381  93.76530813 -535.469691425463
0.96446195 1.73077157 137.58131827 -535.445103067735
0.69958297 1.68888476 110.02914454 -535.345562275773
0.96446195 1.66895679 147.83430208 -535.432477621877
0.96446195 1.71570331  73.06634966 -535.448714521480
1.07231703 1.67530163 103.00000000 -535.467757335346
0.96446195 1.98786167 114.70812736 -535.446172714669
1.05617353 1.62109526 103.00000000 -535.467525077813
0.96446195 1.87566209 132.25653826 -535.439706564670
0.84997923 1.84865473 103.00000000 -535.450992226121
0.96446195 1.87768031 130.45268539 -535.441946129802
0.96446195 1.71441264 109.01876489 -535.474713294036
0.96446195 1.59873740  70.11119707 -535.424613129433
0.96446195 1.85495223 106.21417456 -535.466077362337
1.11741536 1.49729371 103.00000000 -535.436903603748
0.94083078 1.68888476 116.63453350 -535.470667645051
0.96446195 1.92860130  92.72863553 -535.460290283073
0.71782412 1.68888476 102.40301027 -535.369739461716
0.75811882 1.68888476 128.72753873 -535.393594924690
0.87789084 1.73665645  96.96454472 -535.466072729893
1.18044344 1.73757970  90.00907506 -535.445343395291
0.82764025 1.68001183 118.53494813 -535.446012527637
1.01481293 1.66526540 136.38767225 -535.447496296954
0.92828653 1.79294270 135.89775046 -535.441289457538
0.84307490 1.54012057 100.19516451 -535.443940439152
1.00390405 1.63894062 106.29512621 -535.473708087497
1.11495342 1.85588294  97.45764629 -535.453341918507
0.92027462 1.89441733  90.81306439 -535.460724674868
0.85585193 1.76421002  88.42192764 -535.455074006017
1.02654648 1.97453086  96.14128351 -535.453031419873
1.17662035 1.62402748  92.33993778 -535.443075013051
0.86814764 1.74094009  76.07805317 -535.443293623821
0.73004504 1.71254982 111.90750374 -535.380586093449
1.29647910 1.64819208  91.68714592 -535.420216692860
0.90347458 1.64436406 109.40365109 -535.470892607325
0.87703481 1.64424752 120.13096518 -535.460289917052
1.12517589 1.83784234 101.91305024 -535.452764094982
0.99447775 1.74116910  95.69164582 -535.473664433150
0.89055995 1.68817312 119.72005320 -535.462879000520
0.94678790 1.66233599  96.84728883 -535.474152196750
1.01978179 1.74726306 118.40719953 -535.464799041143
0.96098855 1.83388861 118.24710623 -535.460233786089
0.96844811 1.84409379  63.77506822 -535.434193456119
1.02141166 1.63209403 118.96893304 -535.466434605147
0.96335199 1.59871876  66.71493951 -535.414226971261
0.89247483 1.66778441  85.19345240 -535.458895059974
0.93186844 1.66890715  71.70184898 -535.439450255189
0.73258273 1.45019304  99.82584247 -535.344437400223
1.25173022 1.72274284 114.98994391 -535.430051334051
1.02390183 1.47378903 107.94173595 -535.443699492913
1.09518122 1.84435486 104.46134198 -535.456436120031
0.72788484 1.68184112 117.58553533 -535.375967078830
0.97642557 1.72361466  80.68041035 -535.461851075898
0.97835144 1.81222538 124.98684498 -535.455274532869
0.88456236 2.14632023 104.71430180 -535.425428279952
0.94835395 1.53702668  95.90166125 -535.457742682622
0.91526968 1.47771299 115.25651188 -535.445785138390
0.97202870 1.55112481 129.53135998 -535.453281400915
1.12539359 1.70582749  77.03230917 -535.441023833888
1.15251656 1.47467171 105.31006174 -535.424524001323
0.97286142 1.47092324 132.81139567 -535.433458807567
1.32379636 1.68546619 127.57469107 -535.405064720950
0.92337492 1.57952141 100.45368510 -535.467225242693
1.34783685 1.73291625 112.46225806 -535.411288298836
0.96386261 1.66135595 128.76024546 -535.459884064502
0.99016657 1.71138792 139.80046192 -535.442287029353
1.11035745 1.94346812  99.70012997 -535.445380205669
1.04917444 1.82523542  94.92541296 -535.464750950973
0.95413055 1.70245262 102.73968705 -535.476117109018
0.85030474 1.60312517  95.96791131 -535.453598642839
1.04683385 1.68947370 107.87771045 -535.470362185438
0.96922488 1.68384635 109.36959232 -535.475155362458
0.97024553 1.60395775 118.64411616 -535.468120388283
1.02526514 1.65713106 138.91529349 -535.443019677997
1.04434240 1.68032110  77.28364707 -535.450257022405
1.12884251 1.70888612 127.72611275 -535.442339647626
0.89027806 1.71715079  84.62627234 -535.459991961047
0.95943481 1.94446364 118.34950011 -535.448092313810
1.16618310 1.80151898  99.32671610 -535.448303340115
1.08470472 1.65180558  74.18829528 -535.437027996406
1.02530461 2.08940972 107.79330678 -535.436403447555
1.10645310 1.69282971 135.22896112 -535.436758671701
1.03749769 1.89785147 108.78111653 -535.456711897012
0.95350098 1.51770138  74.55457733 -535.412502049368
1.07665846 1.69696192 131.93428716 -535.445713647809
0.86620430 1.79541942  96.89442749 -535.460386218498
0.80923153 1.65498640 109.60020931 -535.442564437222
1.23881368 1.79625764 107.59805436 -535.432501549335
0.90480291 1.66552207 113.53296717 -535.469709342487
0.95754183 1.46796103  97.87440192 -535.438507243054
1.00691201 1.62976908  99.60629661 -535.472221829207
0.95709825 2.00366467 102.75106198 -535.450856018078
0.86635965 1.72136985  69.70873171 -535.428563534450
0.88672991 1.59150825 108.73864628 -535.465036719232
1.36133287 1.70053830 112.64178985 -535.409491759918
0.75086190 1.82414663 101.75172510 -535.396090978560
1.17163311 1.68180845 105.85013424 -535.450757771562
1.04343353 1.90948671 106.53409432 -535.455959056373
1.06506597 1.72770019  70.74297794 -535.439824787044
0.95777236 1.65510760  90.57637631 -535.469848002542
1.03547720 1.58471498  93.53019541 -535.461104602828
1.23946669 1.71919762 107.63565341 -535.436283222527
0.90824477 1.60893945 128.27615143 -535.456711519095
1.11602793 1.64276992 112.61172509 -535.458022547686
0.93533122 1.73391187  82.36077580 -535.463168273961
0.90039097 1.54279958 103.36584864 -535.459631638975
0.98905141 1.73508926  87.65790715 -535.469358196773
1.00633202 1.79749738 116.28670797 -535.463924578834
0.89668447 1.67426724  95.25608049 -535.469042227549
1.14506044 1.91511065 105.44483679 -535.440851570286
0.85754088 1.78636740  97.89093880 -535.458686390505
0.99833562 1.74130108  92.55152531 -535.472171259076
1.38340515 1.80525042 104.65085246 -535.402724242798
1.11111180 1.71851477  85.00652104 -535.453651822781
0.84019616 2.06091045 106.64622106 -535.421708514334
1.14132591 1.99008519 101.54167612 -535.434615165133
1.48827861 1.53022231 100.28193269 -535.372873059377
1.40506827 1.69542356 124.49960665 -535.392168629944
0.90390506 1.76394227 113.03856503 -535.466151340348
0.80524095 1.67645796 108.68548799 -535.440833758991
0.98045200 2.01035198  80.36420597 -535.447381807182
1.24376407 1.66407100  94.62365403 -535.433933459813
0.92958840 1.67619420  73.51389629 -535.444260263012
1.02547705 1.72363833  60.98988167 -535.419348309345
0.97022724 1.58352759 121.54630175 -535.464366151141
1.10299654 1.75899935 107.13691379 -535.460567209723
0.77544469 1.55347814 101.84776903 -535.412950630324
0.89703367 1.90447339 111.02877453 -535.452962146835
0.93389435 1.67337612  87.56726413 -535.467022027421
0.94601570 1.99077691  73.26576456 -535.442637056513
0.92183438 1.68577586 100.62349969 -535.474246109417
0.88257331 1.62040264 107.26423207 -535.466703860802
0.92012875 1.70104575  76.42495353 -535.451383915272
0.85327277 1.44879926 110.59625562 -535.423893896391
0.93897335 1.81767287  96.36367701 -535.469843701215
0.91735855 1.65258031 124.43563264 -535.462626710710
0.79369845 1.69696814 114.39188419 -535.431399701385
1.01889299 1.71619926  97.80738113 -535.473141951600
1.10706289 1.70298919 100.43384062 -535.462509959658
0.96824513 2.07685545  92.99747792 -535.444153168256
0.89467426 1.65829518 107.73225000 -535.470302242702
0.90550101 1.61183674  78.31649042 -535.442719357228
0.95385730 1.83767997  86.89062536 -535.465423956807
0.98737206 1.94523298  96.24248496 -535.458526589982
0.95192915 1.64749323 125.33985595 -535.463660426561
1.10791999 1.62953261 111.04232847 -535.459492949029
0.92326807 1.64706627 108.54206198 -535.473385724819
1.03523401 1.73945647 121.70488497 -535.460769315861
1.00482206 1.61180937 136.71826079 -535.447492323897
1.08859402 1.60762772  94.70774264 -535.458369481526
0.88746226 1.69408913 111.97049265 -535.467423480127
1.08277643 1.71308150 112.89477944 -535.462989523754
1.29182222 1.63092838 104.03471822 -535.424834441700
1.30764126 1.60481139 101.81456240 -535.419239150879
1.03001011 1.67618686 113.59889029 -535.469788943563
0.89748311 1.75013072  88.63864589 -535.465147157786
1.05860279 1.70250808  79.64634081 -535.453943200349
0.81925045 1.71901395  70.74241966 -535.413460633892
1.41162484 1.68337942 121.12741419 -535.394244649413
0.91120434 1.87623778 108.75590400 -535.459447556106
1.06391315 1.50655508 110.06330341 -535.449028981800
1.24355857 2.04935021 102.64791067 -535.407859713014
1.01752708 1.63192606 137.74795970 -535.445468707309
1.08842503 1.44541997 101.57862132 -535.421694568094
0.96764729 1.81080403 120.53020165 -535.460295540820
0.98721226 1.65220620 110.57812649 -535.474029828938
1.08538245 1.48171282  95.76433776 -535.431339390083
0.77750294 1.56348989  96.78575827 -535.412912591015
0.86140590 1.67972952  99.93893104 -535.463295945919
0.88256074 1.78097909  85.14056179 -535.458670402053
0.96839349 1.46526967 122.01264541 -535.440943505614
0.91063215 1.70691637 139.76591201 -535.440467606668
0.86828210 1.94306550 102.21954922 -535.446460042897
1.02127607 1.95251555 102.07438423 -535.454915207929
1.28151281 1.61211140 104.08769701 -535.425658631807
0.91339705 1.53347992 109.01548558 -535.460392754473
1.03824371 1.60180512 106.87429322 -535.468137990135
0.92529418 1.70273963 105.23552118 -535.474449463251
1.00426206 1.66737565 123.44098266 -535.464196316609
1.06993066 1.66341927  76.71737770 -535.444883412992
1.03328833 1.98979294  98.75001282 -535.450443314688
1.24717592 1.66983848  96.28200448 -535.434218314217
1.24267375 1.84142640 103.20088889 -535.429562646586
0.88551986 1.72084810 115.36795453 -535.464083355567
1.03994602 2.15071021  99.16568377 -535.431426802917
1.05865099 1.66956579 124.24062977 -535.457969195002
1.01317727 1.60197542 113.32101667 -535.468898338195
0.97107175 1.69293179 120.85770360 -535.467551364355
1.02326611 1.77003752  80.72689652 -535.460253129603
0.87250617 1.67256807  99.63654014 -535.465960359449
0.99222067 1.77418703 126.91770514 -535.455823557473
1.07054359 1.67468391  97.72414729 -535.467103546314
1.02661597 1.73197721  82.59034111 -535.461963209618
0.94455878 1.84122837 127.45924186 -535.449122278377
0.98092802 1.58891243 104.73095699 -535.470907730312
0.87205161 2.02783766 101.05854153 -535.437747670124
1.28747012 1.69384924  96.15776336 -535.426317993636
1.14862745 1.67876061 121.48395559 -535.446292712036
0.84348944 1.61188711 116.61624579 -535.452481954739
1.24779018 1.68048573 119.48648402 -535.428575303258
0.88843268 1.77328823  89.36554303 -535.463452661227
0.87643664 1.96232278 102.75797020 -535.446083714239
1.02863374 1.88838856 107.42322174 -535.459232323766
0.99024267 1.84753219  65.59693126 -535.438043484282
0.99750975 1.76822419  69.05625960 -535.443271703267
0.85535239 1.71848460 113.76205569 -535.457859319256
1.00463711 1.48186702 118.91703113 -535.446125622125
1.08747273 1.44691736  99.93346884 -535.421150014363
1.01773952 1.68722147  63.57197011 -535.422284081819
0.98004626 1.99084426 133.76710988 -535.425202595561
1.34768311 1.54650650 102.98129615 -535.403467862640
1.13610551 1.65233504  88.60602979 -535.449818341780
0.95201845 1.71080736  82.30674969 -535.463349133550
0.88972789 1.50977655  99.65171126 -535.448114297698
1.21735740 1.69306973 107.95998103 -535.441185607808
1.01439643 1.48982390 114.97550242 -535.449179414529
0.94838730 1.61759838  85.33618767 -535.459806640337
0.95393765 1.70708769  83.81920376 -535.465185755586
0.99752949 2.04202982 105.86255971 -535.444615429028
0.96200476 1.64252384 100.00994572 -535.474682292757
1.03289313 1.61545662 122.48069687 -535.461735152195
0.97238970 1.84524525  82.36127640 -535.461766768541
0.94233713 1.48505186 144.90427381 -535.422822547156
1.28429277 1.65777694 118.35656363 -535.421999844338
0.79023655 1.69056215  72.00796716 -535.398063314814
1.08381029 1.65651447  97.54948837 -535.464501326315
0.97205937 1.56053703  96.37389735 -535.463236466554
0.87934883 1.80378534 100.77544085 -535.463167745202
1.01941790 1.48788896 102.77270433 -535.446846165483
0.86727995 1.67561891 102.52686931 -535.465199217088
0.99581087 1.75028956  98.73617772 -535.473975485726
0.90571259 1.62967251  68.85223625 -535.422218625946
1.26483841 1.59395928 105.33033678 -535.427500412618
0.98719029 2.12133542  91.73921232 -535.438959278675
1.19399412 1.66664968  86.24150956 -535.437739688263
1.23561141 1.98379898 104.27014430 -535.416296792536
0.95940035 1.58755802 141.08974259 -535.442131411443
1.11079423 1.71036028  95.75217494 -535.460813892596
0.95859337 1.69029821  61.58205476 -535.415994482616
0.82868823 1.62560039  88.95748754 -535.441539414676
0.94329416 1.86870523  98.59766977 -535.465897839811
1.00225496 1.61173473 127.95349751 -535.458660973074
0.91616694 1.52623211 119.91230346 -535.455796306030
0.85428205 1.70035051 112.54253366 -535.458919012804
0.92827979 1.72067463 110.32596820 -535.472628663593
1.15891186 1.65503860 111.21095810 -535.451285676762
1.27534719 1.72160136 110.61215642 -535.427638766667
1.37756100 1.70616605 103.48745132 -535.408622482029
0.89690075 2.08400814 104.44091610 -535.435112460407
1.01175278 1.72958023 138.42282961 -535.441984245578
0.88393715 1.67561573 116.45246514 -535.464433553921
0.90841039 1.59685646 122.76391166 -535.461518246308
0.96547318 1.68048762  92.95427919 -535.472982497741
1.03403957 1.63489888 111.80009477 -535.469555563720
0.76349767 1.73054897 116.39296352 -535.407622572597
0.87774266 1.51969912 112.42184227 -535.451651831395
0.94199601 1.59017416  67.18961519 -535.412129266992
0.93258323 1.68706402 127.03244874 -535.460451028992
0.96595680 1.70014658 141.63564619 -535.440741527201
0.86873441 1.78879450 105.64826069 -535.460919427078
0.96885718 1.76780974 108.74184333 -535.472209087927
1.21397320 1.69355516  87.70139633 -535.436497257293
1.06477332 1.63413606 109.94691702 -535.466536734675
0.99952293 1.67002787 132.88654873 -535.453341941021
1.06899918 1.74544837 102.42586669 -535.467230204378
1.08244594 1.72916338 128.68057542 -535.447631492632
0.73266075 1.83360159 102.76520946 -535.377455291998
1.02455718 1.65129131 113.12448600 -535.470370619530
1.01724672 2.22408476 103.17748881 -535.424311441001
0.93014136 1.63857653 106.80228031 -535.473922012908
1.40421680 1.58929243 104.44706085 -535.398681683160
0.84475849 1.64419332  96.54339589 -535.455648470348
1.00212988 1.67711843 107.33125487 -535.474550905962
0.75796149 1.66905869 111.02920181 -535.408384260771
0.97588658 1.96936974  99.69304623 -535.455734901509
0.78163861 1.60396975 112.42296256 -535.423613385154
1.00593452 1.73980036  65.26970990 -535.432932001589
1.02768986 1.54912543  89.10944857 -535.450063389941
1.02013469 1.72323567  79.43145266 -535.458198845466
0.73432744 1.70236493 127.64007636 -535.372285513368
0.80271287 1.73617795 109.39581099 -535.437342808824
0.92848298 1.65040867  65.90879140 -535.420375310798
1.29007636 1.69058861  81.04366513 -535.414123607121
0.90176910 1.62246511  75.02673846 -535.436641928330
0.98015009 1.73804365 111.38474720 -535.472458581773
0.88007866 1.63542090  95.33162778 -535.464021051466
0.98817256 1.92458237 125.49418338 -535.442710017935
0.85832107 1.73513719  86.54823659 -535.454618288742
1.13176151 1.82308498  99.81703085 -535.453053166524
1.02826045 1.63936070 108.11593637 -535.471461188316
0.89621707 1.72706795  85.46191897 -535.462124255224
1.34189195 1.67224991 124.05984558 -535.405365238330
0.90039382 1.80962507 102.82022170 -535.466366990929
1.01339785 1.80655215 112.30049638 -535.465557165435
0.98446094 1.62041962  76.04437009 -535.443917516687
1.28718956 1.66758041  96.26504120 -535.425776717980
1.03552358 1.69740636  94.25816800 -535.470299383984
0.95302121 1.92333813 123.85943116 -535.444776294114
0.82537624 1.64898009  75.42339710 -535.419695776583
1.02520921 1.76779201 100.05887002 -535.471229827276
1.43966732 1.60054722 106.87340507 -535.393100032653
0.97290634 1.84472597  95.57095627 -535.468413492978
1.51917437 1.89337678 103.30488119 -535.368951369531
1.05788224 1.73438216 105.33071884 -535.468657064035
0.87606536 2.05560984  97.62973652 -535.436177639933
0.93823238 1.91937570  82.96274821 -535.456152696749
1.00895247 1.96006007 106.74451146 -535.453160331707
1.08821098 1.92039650  98.03310985 -535.451405762466
0.95715949 1.69240603 103.83464100 -535.476217642853
1.22010262 2.00409400 102.37183638 -535.417803819318
1.12358178 1.72666962  93.15424650 -535.457532114482
1.04077786 1.87403708  95.01651214 -535.461776235163
1.16575543 1.83621727 100.80684796 -535.445749923202
0.79036027 1.66801162 121.53168566 -535.424787900031
0.95636372 1.45614596 117.46248466 -535.439989519415
0.95129781 1.91687694  97.20298561 -535.461498157166
1.00477266 1.81243143 123.29474339 -535.456056003258
0.96488777 1.79476285  96.91768139 -535.472222926525
1.34046852 1.67844874 114.54806269 -535.413022368121
1.02836303 1.76277030 117.65688808 -535.463686568621
0.92908963 1.82336568 103.23014414 -535.468453153507
1.02251010 1.62158643 121.03880016 -535.464280278202
0.89271322 1.57522003  90.19153282 -535.454075905172
1.30505453 1.81479549 102.80110928 -535.418712855347
0.97867422 1.56366045 110.37647466 -535.467560113509
0.86394863 1.79871329 108.65361366 -535.457746328124
1.00004910 1.72824684 113.16586260 -535.471064103146
1.53482466 1.73375886 108.13869874 -535.377161890842
0.91689314 1.76116194  75.16588608 -535.451410655167
0.84332436 1.80143336  94.35324552 -535.452341023345
1.15207783 1.69382055  59.09380937 -535.400688320525
0.94818479 1.64816313  79.89103439 -535.454916716400
0.80316385 1.74311586 113.90005321 -535.434802947177
0.93651102 1.71489603 106.47690868 -535.474710330618
0.93133524 1.74229424 121.66646139 -535.463417278271
0.89920600 1.94016188  99.70133711 -535.453845625331
1.14790573 1.70361187 122.70218250 -535.444685257169
0.74470400 1.86318051 105.83685949 -535.385500997056
0.94270558 1.70137016  90.19120500 -535.470986053033
1.04161083 1.58989439 100.84886652 -535.465644062715
0.99655252 1.84717364  96.66062140 -535.467639699432
0.85677546 1.70698758  73.13961252 -535.432433642005
1.05324102 1.67182965  82.22707994 -535.456176233726
1.36605991 1.67989251  86.53771150 -535.403422040527
1.17103289 1.71525991  77.00458514 -535.433709584441
0.86920520 2.22055412  98.74052976 -535.415595736457
0.93085645 1.80266383  93.55516698 -535.469636545529
0.82807787 1.77656993 105.18064389 -535.448400239867
0.97205639 1.65667596 130.60901512 -535.457586711023
1.16903369 1.68325481  89.80032983 -535.446598692366
1.10993420 1.66512069 132.20003829 -535.441000008446
1.14666943 1.62754700 113.29419774 -535.451687062820
1.10765258 1.69128370  92.56927051 -535.459594023868
0.84572907 1.62116724  85.26661747 -535.442490472566
0.96036119 1.44829285 112.91693560 -535.437849337482
0.97758932 1.51155580 108.78356934 -535.457713901076
0.92277143 1.72306816  66.54073789 -535.431582645964
0.92648707 1.83715251 112.68904145 -535.462694607525
0.97629535 1.87136759 140.73943407 -535.427362713625
1.07871887 1.65191301  79.21588758 -535.446736804743
0.99231356 1.72590263 128.20808318 -535.457546420557
1.01105549 1.74428828  69.38523985 -535.442304580225
0.92112546 1.56132571 110.33470267 -535.465788626811
1.28238816 1.87575752 100.55043496 -535.418768624468
0.83875773 2.15092838 105.78064396 -535.411017537374
1.21167806 1.71650150 122.13205303 -535.432555210274
1.09759786 1.49116572 104.31223427 -535.438837273812
0.91341649 1.71051893 127.32246754 -535.457488247914
0.92999546 1.77354161 119.65552200 -535.463024156349
1.11279033 1.69788408 141.35592907 -535.426263705986
0.95345649 1.92241991 117.33653743 -535.451392359593
1.11447319 1.75457766 108.57212886 -535.458392532262
0.74070008 1.90259971 103.72442431 -535.377975239591
0.73463084 1.74036855 107.27384396 -535.385755198124
0.92176253 1.79967563  84.78948579 -535.463734879600
0.94324783 1.90182347  73.08856419 -535.447919146325
0.92807476 1.72063833 115.50949820 -535.469610755971
1.07332248 1.69018195 109.52719833 -535.466428596945
0.97271245 1.87687371 120.70322929 -535.453467600611
1.26707008 1.70206507  95.07831424 -535.430277215090
0.92820093 2.04192724  96.20221546 -535.446218877397
1.14263619 1.50772799  97.77639514 -535.432259731195
1.10884305 1.71764769 124.18090223 -535.449368193504
1.02810563 1.76869001 101.88422689 -535.470855033692
1.04467350 1.64435013  71.49831174 -535.434554420559
1.04457735 1.75096998 123.77062405 -535.456926239478
1.19454766 1.68897221 100.51108704 -535.446449190403
1.18461145 1.62265660 106.93663009 -535.446117161481
0.89646724 2.12315792 103.23320081 -535.430943692532
0.84066267 1.70290075  83.48523256 -535.444719544306
0.83997025 1.40782835 108.36619554 -535.399466142951
1.11420564 1.67786537 126.36448111 -535.447298282325
1.34345662 1.75519770 106.91077353 -535.413434165387
0.71203318 1.80416109 104.17974594 -535.356413710035
0.78237460 1.66940676  96.63509228 -535.426072777591
0.95077294 2.16066570  96.30309112 -535.434104522389
1.43242390 1.66177396 102.27064155 -535.397446278428
1.41020405 1.67102619  87.08021974 -535.394466383871
0.99981211 1.60922037  96.65587574 -535.469474738869
1.02082859 1.73820613  93.34703512 -535.471090387326
1.07366521 1.70841627  76.02516642 -535.446975027318
0.95603836 1.62290044  70.92305322 -535.431725665979
1.23556215 1.67874600 126.40712482 -535.424335745866
0.97689052 1.87338513  70.89199848 -535.446896173726
0.93929007 1.94011004 101.77708069 -535.457742571907
1.18986719 1.64312349  96.34990343 -535.444557630583
1.01941225 1.58398223 121.25760977 -535.461936933489
0.84086929 1.79230280 105.72262447 -535.452079767517
1.04940589 1.67444649  64.76903460 -535.422142482339
1.32875489 1.69214734  75.06836991 -535.399049529035
0.96456858 1.89085554 127.86872036 -535.443864841869
1.50622248 1.62327241  98.78891019 -535.381085151795
0.80005035 1.64894510  97.40443328 -535.436469090778
1.01133801 1.63511969 107.85199192 -535.472784184999
1.23500716 1.70552643 116.37745386 -535.433089876204
0.96316444 1.44019986 106.58252453 -535.433201109148
0.78603225 1.74403064 100.66460596 -535.428615169611
1.05732743 1.60888195  96.54600712 -535.463991690048
1.03344148 1.85444644  95.51340669 -535.464241386102
0.83090144 1.74954318  84.84190404 -535.443215170535
1.02330467 1.83994472  96.53953266 -535.466435847831
0.82813737 1.71479684 132.96726685 -535.429048807003
1.18277683 1.82412614 107.57774401 -535.441610947406
0.98786687 1.74052307 125.18020270 -535.460438506505
0.94068523 1.56450288 134.51593396 -535.448822266406
0.84005144 2.18601887 100.05280735 -535.409643102628
0.97456886 1.58676886  79.24809038 -535.444370891154
1.35427022 1.70007693  91.43240797 -535.410180191824
0.97788563 1.76309301  66.73069171 -535.438270936082
1.11926035 1.64302547  93.97894635 -535.456284089082
0.88603828 2.05366038  97.32708457 -535.438659108159
0.95359322 1.70409657  84.65879820 -535.466071349157
0.93148865 2.09737109 107.56302292 -535.436424468268
1.50916956 1.74349831 100.61281251 -535.382050907472
1.14664511 1.70130778  86.41212274 -535.448505742317
0.95972890 1.50659304 116.06410744 -535.455545079245
0.92639138 1.65424763  84.01340000 -535.460653961758
0.75778198 1.64049228 116.79688773 -535.405196886075
0.86033074 1.81155326 104.60998346 -535.457126233132
1.04103040 1.90692400 103.91715682 -535.457501825199
0.89533005 1.43908425 105.29917836 -535.427249756458
1.08482281 1.68602965  56.89452083 -535.398370797792
0.87364795 1.62921977 120.25232085 -535.459152072185
0.91762828 1.69671450 126.94524190 -535.458994772136
0.97981823 1.77336312  82.20530929 -535.464042286235
0.95785222 2.03824453  71.37105146 -535.437587351642
1.06157415 1.72008941 138.51684806 -535.437231309708
1.05478972 1.68046768 113.97009380 -535.466798929367
1.41912773 1.69929129 127.12947226 -535.386717752518
0.95141464 1.91985095 102.78225968 -535.460266995030
1.33219972 1.84096956 101.09487977 -535.411244924137
1.39492337 1.64726242  99.72227108 -535.403855662300
1.00042857 1.75759678 120.49552216 -535.463602411539
0.92873329 1.58478319  86.58433884 -535.455346961458
0.99574574 1.68323938 120.83760657 -535.466963395279
1.09875109 1.70426744  76.33936405 -535.443892384025
1.34448452 1.67139172  99.29558552 -535.414894315037
0.99565985 1.75300671 140.11320217 -535.438759894262
0.87233156 1.67381692  66.81378070 -535.416900748644
0.84154588 1.67615512  84.92558090 -535.445636686378
1.07839996 1.60936956 109.99853364 -535.463143300736
1.30867241 1.72100009  95.07662888 -535.421536744797
0.88828731 1.70525268 116.14641192 -535.464716102336
0.94926758 1.51782298  63.52222420 -535.372982452554
0.92884855 1.98221955  92.35556413 -535.452995370941
1.06310738 1.57823411 112.50437842 -535.461552695330
0.90205607 1.82513485  97.89108666 -535.465689457138
0.98942011 1.65815057  90.19653831 -535.469303873238
0.94531675 2.07843592 120.23148538 -535.430495437036
0.82348409 2.14898595 103.57366746 -535.405758771841
0.89377249 1.58441369  82.29438661 -535.443655794221
1.20491235 1.75987316 100.99773238 -535.442977040053
0.97826137 1.78812003  83.72390769 -535.465311969357
1.14413881 1.79564803  97.55311591 -535.452677494854
1.29810075 1.66470081  92.95684617 -535.421692567820
1.22794891 1.68890912 138.63271453 -535.409336915696
0.95091034 1.81270836  78.71321322 -535.458930893820
0.84037827 1.76883554 109.40490668 -535.452263567522
1.09663800 1.84451194 108.88145528 -535.454401302579
0.84809699 1.64947703 119.60549116 -535.452989665185
1.27183275 1.74309720 101.28490384 -535.429831093356
0.99981638 1.85987579 123.44654495 -535.451531270982
1.27385982 1.68226777  66.28959197 -535.396366945351
0.92740143 1.88875212 106.09683159 -535.461063929509
1.06179407 1.68442481 130.30911540 -535.450249644270
0.93356609 1.77086076 145.30020125 -535.428873160338
0.85704282 2.13602560 107.00566099 -535.418453210820
1.13667803 1.66784285  73.20411184 -535.429739444143
0.94755125 2.02134677  77.49435714 -535.443939921342
0.93793943 1.50005744  94.96273200 -535.446176935134
1.00739530 1.75927233  82.91483638 -535.463856622291
1.06262246 1.66677215 121.44559739 -535.460216422059
0.97827481 1.65821775  85.80575564 -535.464980451430
1.53528126 1.70813423 115.86827620 -535.374988303217
1.01537036 1.74020458  70.86797930 -535.444849982226
0.96820779 2.18885690  81.06259342 -535.430253901416
0.80886521 1.66246840 122.86532297 -535.433975787100
1.01241675 1.64651132 107.08301926 -535.473303495878
0.99041383 1.67265291  77.68768800 -535.453796345103
0.92942880 1.68405583 146.37324688 -535.433214775260
0.92780837 1.71922114 120.97827097 -535.465142166997
1.04990031 1.71245770  73.92283225 -535.446281609950
0.98490766 1.78076494  95.41803993 -535.472419523470
1.09658709 1.69929867 124.37124451 -535.451809602769
0.94677031 1.54839389 114.70060730 -535.464103021962
0.95759089 1.65000260  94.97143969 -535.472823980345
0.94061094 1.45897860  67.28217155 -535.357809849554
0.98555942 1.44949191  78.54750280 -535.393390635587
1.01339207 1.64603847  98.86889893 -535.472526047588
0.76676416 1.67121768 121.02200144 -535.408998764708
0.95764194 1.61368471  97.95380971 -535.471677945825
0.81023578 1.79436082 112.90413178 -535.435224496092
1.07938209 1.70752399 143.04772753 -535.428331923071
1.28105741 1.69134808  76.99034593 -535.411057635096
0.98207268 1.78531947  99.00679883 -535.472794855389
0.94994987 1.65941031  94.47138075 -535.472862654962
0.83386338 1.62669739  93.87015339 -535.448594725196
0.73603064 1.75391780 100.29059319 -535.387241282601
0.82957392 1.70886752 103.30269019 -535.452573981096
0.88440024 1.59163517  91.73162635 -535.457028863989
0.90656108 1.58543526  97.20792577 -535.464466262286
0.98404609 1.74546687  90.92191006 -535.471771353841
0.85654111 1.61640116  86.82368589 -535.447580631316
0.85931404 1.66487516  96.55283444 -535.461166755815
1.00772299 1.51979872  88.81008011 -535.443386847565
1.01950228 1.83637519 117.27308488 -535.458656861484
0.84799635 1.68319866  79.49526248 -535.440131672309
0.89715604 1.81936767  94.87605261 -535.464920946697
0.90114550 1.91381304  99.39113521 -535.457084339097
0.94765435 1.45849944 135.05878237 -535.427432718791
1.38381089 1.71265993 102.17936268 -535.407280497310
1.37798392 1.68236027 132.38958573 -535.388726939692
0.87446810 1.71643072  77.48274692 -535.446324413693
1.28212539 2.16399015 101.58210890 -535.387620339304
1.02866528 1.84742232 108.32171574 -535.462880207197
0.97896259 1.54456547 138.05626569 -535.441979274255
1.07733547 1.67735560 122.14910976 -535.457445720574
1.17741403 1.62732222  93.39376255 -535.444018450024
1.26813425 1.67338032  96.39822132 -535.430016184066
1.01065319 1.66278971  88.39710725 -535.466748284202
1.11796192 1.69531055  91.81026730 -535.457528150762
1.06154553 1.91446292  98.10516741 -535.455598763185
0.93332518 1.66164668 107.71627363 -535.474642082070
1.21198571 1.62042040 104.05417366 -535.440602469798
1.03631518 1.57681994  93.13329105 -535.459382069729
1.37079162 1.70206299 127.46317424 -535.395463106773
0.90745139 1.69982720 138.27193557 -535.442703400618
1.11084821 1.84260401  99.27283504 -535.455075051169
0.96839367 1.58915424 111.98064019 -535.470401545832
0.98881633 1.51825558 107.82937671 -535.458840049150
0.86078179 1.85634881 102.20088067 -535.453732054219
0.92608979 1.95501792 114.36966641 -535.448446918563
0.95381277 1.67805434 107.31277718 -535.475697619461
1.26021116 2.02477452 103.35780648 -535.406975925056
0.85628165 1.71115345  73.42598123 -535.433211133025
0.96158315 1.66489952  83.70183953 -535.462833976969
0.82620205 1.74486499  99.87900987 -535.449854219315
0.96788532 1.79892334  75.65123320 -535.455476001226
0.95779686 1.65619349 107.72022499 -535.475415991961
0.82663183 1.85360687 102.18414661 -535.441869572626
0.93291359 1.57184132  98.14000592 -535.465547252372
1.01678070 1.69865375  70.38970396 -535.440717820338
1.00731692 1.57282634  97.09408406 -535.464396795501
1.47829162 2.03282882 102.61086869 -535.361894306744
0.96409184 1.96982945  92.00000353 -535.455909193991
0.89805265 1.72037311 107.12158116 -535.470342461671
1.18872693 1.55381853 107.53848610 -535.437595958462
1.06121231 1.81919265  95.61954555 -535.463861001551
0.88500084 1.96652528  97.27785856 -535.448572194816
0.96361283 2.15630121  71.22710515 -535.427960887805
0.97806741 2.09594552 133.59717738 -535.415069457364
0.86399488 1.65652564 134.97903764 -535.440762039648
0.93638729 1.66916110 117.91255131 -535.469794739447
0.94799494 2.06670183  83.01939613 -535.442753319855
1.00482707 2.01404339 114.06021643 -535.442616856782
0.95020715 1.58091622 110.36027153 -535.469872090963
1.21390509 1.67825535 111.98700363 -535.440403074205
1.04309505 1.73078444 126.02694766 -535.455780174027
0.98286506 1.94195867 106.80011775 -535.456354710287
0.86047251 1.84419093 110.17083943 -535.451784619674
0.97869153 1.53114941  65.77833635 -535.389692669837
0.95191916 1.87446431 126.29216637 -535.447333925603
0.87446877 1.64892717  73.66009456 -535.432089193395
0.90344639 1.67728514  93.09270926 -535.468850031115
0.88770463 1.65950499  85.60148392 -535.457933439643
0.97785585 1.91280873 111.03851283 -535.457397582978
0.97437036 1.94882768  55.73325708 -535.416967396960
1.08726379 1.72017382  80.80402412 -535.452581194980
0.86926041 2.06853757 102.40789158 -535.431752345463
1.12484609 1.88515477 106.15560836 -535.447172867502
0.92729464 1.71664456 133.03055664 -535.451184084165
0.98203245 1.62205048 117.26047984 -535.469762446382
0.76991484 1.67239557  81.20063430 -535.401160020852
0.85326279 1.57259831 109.02012081 -535.454824591505
0.95861885 2.11948503  69.40581496 -535.429344997928
0.96290568 1.77389193 101.87772410 -535.473632220395
1.13575485 1.72242615 108.44398936 -535.456145851586
1.04569022 1.95050505 109.49942014 -535.449647204283
0.90227144 1.77551544  98.81836421 -535.469190301119
0.91923755 1.74158001  73.91126872 -535.448848376890
1.14332888 1.71302465 101.14239745 -535.456213537612
0.99247317 1.58396558  76.31457267 -535.437124786962
1.32469377 1.69350207  71.42587660 -535.395251231231
1.03128255 1.68652360 115.08369391 -535.468659957440
0.95226016 1.55763123 125.11091142 -535.458596253364
0.95443092 1.48474223 105.33103918 -535.449570792366
0.89864259 1.83330129  93.86374400 -535.463882583356
0.84914757 1.82321586 104.70841960 -535.452644517336
0.91135911 1.62926494 109.39044031 -535.471308042532
1.02214900 1.85898347 106.42298929 -535.463192061395
1.12363611 1.66427357 107.70633586 -535.458986376869
1.11196392 1.73861403 107.41108116 -535.459996148133
0.94951197 1.67864477 107.62871470 -535.475521463053
0.98952317 1.60819112 111.74411226 -535.471476703459
0.74130355 1.69865817 101.89842372 -535.394564046858
1.03798650 1.74469238  90.56210222 -535.467907320986
1.12150703 1.69680134  87.64749282 -535.453836629836
0.89295031 1.68696576 103.22894679 -535.470699338351
0.70203843 1.67089232 114.58103522 -535.347154219339
0.99692893 1.53926294 114.00180099 -535.461932575961
1.17030020 1.71609560 120.46677584 -535.442215590348
1.01209057 1.64988052 103.01542151 -535.473649430879
1.18993953 1.72514374 101.14350408 -535.447133232170
0.85227145 1.52505224  97.21087574 -535.441217577033
1.02198234 1.66055495  83.74219748 -535.460328928461
1.02331453 1.63144415  89.97362249 -535.464786161704
0.98415367 1.67604926  75.11689364 -535.449469549009
1.04803689 1.73097869  79.68051875 -535.456282922053
1.06455461 1.75563860 104.36385579 -535.467089047812
1.10496374 1.72624938 116.57449790 -535.456620352422
1.29888452 1.75278064 108.94365983 -535.422132190553
0.98323611 2.06726457 105.16669813 -535.442444857224
1.01214521 1.52747885  94.53319709 -535.452437493709
0.96687631 1.96566187  98.99610831 -535.456310952799
0.86234777 1.72637110 127.29202989 -535.447090894980
0.91117551 1.73486618  87.16671946 -535.466022585784
1.27558946 1.71012156  80.54881064 -535.417482843797
1.01328076 1.91037766 110.62023033 -535.456357412213
0.82535615 1.59664069  90.40811496 -535.438234949384
1.02026238 1.93961815 101.92638682 -535.456465491733
0.91846290 1.57402053 113.19237693 -535.466467730578
1.01820531 1.70087410 102.02759778 -535.473899445839
1.03267727 1.77333237 109.07921605 -535.468164783297
1.13363742 2.11497571 104.50017145 -535.420736368597
0.89711389 1.68036593 130.22847048 -535.453068711804
0.82017319 1.75705783  89.10758203 -535.442280370579
1.11253737 1.70392772  81.45811921 -535.449003525741
0.86823302 1.71583660 111.20894790 -535.462915201277
1.09675203 1.65834615 131.32013897 -535.444324008837
1.10428378 1.72597546 125.51432950 -535.448242227243
0.95271008 1.89391467  73.17036063 -535.448872005353
0.94215779 2.00300281 103.26372468 -535.450175410659
1.02206325 1.64770207  58.76423301 -535.399390206898
0.90222095 1.58261042  84.51999475 -535.448659053434
1.04298941 2.20343289 106.65181518 -535.422868310256
0.85961182 1.87806888 105.54257878 -535.450201589503
0.96640957 1.87542555  80.72622567 -535.458551822375
1.25368080 1.55931758  98.65768752 -535.423025923069
1.08728401 1.68966660  73.24653720 -535.439057737532
0.98752767 1.47353317 124.07254754 -535.441542561875
1.30506566 1.69092711  68.62830181 -535.395017515621
0.97613946 1.61109100 129.87624413 -535.457683212929
0.89161803 1.51343367 111.01080044 -535.453017973546
1.33906226 1.70889258 104.07107882 -535.416467377796
1.15440545 1.72224561  89.28196198 -535.449807790031
0.89706851 1.86807757 110.64617050 -535.457199676559
1.25155571 1.75673842 100.20057063 -535.433552013540
0.89751630 1.96611282 111.34191368 -535.445646242891
1.05246879 1.65879872  58.65778199 -535.400711634880
1.00848018 1.74850811 144.00893519 -535.432064587293
1.11306472 1.69963401 104.87839236 -535.461447201551
1.11803950 1.78472117 104.76112237 -535.457299681759
1.03857547 1.58739542  95.12189412 -535.462485143111
1.08686100 1.81683073 103.16187917 -535.460313629581
1.05261464 1.66561630 119.27424802 -535.463378492681
0.93342338 1.63091174  96.93137629 -535.471730608186
1.09099610 1.64929554  89.96175212 -535.458193183588
1.00891594 1.71523452 103.54217596 -535.474345149958
0.87488238 1.47244135 104.50559283 -535.436416358269
1.43631987 1.73734867 106.61528165 -535.395576430116
0.86259639 2.09744777 107.48705311 -535.424331008056
1.17724232 1.87559927 104.78135470 -535.439118380172
0.86390356 1.66198053 112.04094880 -535.462403810425
1.12930338 1.64092042 120.59181427 -535.450373579338
0.97227470 1.63388871 119.01110656 -535.469202329457
0.89304978 1.76107593 125.56773494 -535.453386899258
1.14911137 1.61580473 101.46823835 -535.452089496839
1.07174045 1.78682368 104.44620758 -535.464311712130
0.88869070 1.54723576  92.02229695 -535.449907353980
0.95671278 1.64396351  93.98398314 -535.471784671227
1.09632525 1.74819490 116.03792975 -535.457284877969
0.90244962 1.82228027 109.76353388 -535.463093752981
0.98673454 1.80330545  89.44925079 -535.468793019540
0.94979147 2.08676543 117.63877527 -535.432010496523
1.01540801 1.74594579 104.05679756 -535.472779221616
1.08735288 1.62873468  98.06631387 -535.462465638650
1.44757330 1.65715900 114.12296648 -535.392197544733
0.96469684 1.95200313 115.00030834 -535.450142189514
1.03274899 1.47605803 108.81949942 -535.443753812640
1.00370296 1.53692745 105.04350477 -535.461649716566
0.96683725 1.91427479  76.44907226 -535.451937879329
0.91598515 1.89219798 111.33687401 -535.456781947542
1.19530017 1.57933375 104.42457970 -535.439845468024
1.24118955 1.71633550  84.91698674 -535.429177206927
0.88494853 2.18669554 104.97974214 -535.420938038352
1.29996263 1.76273787  97.31201562 -535.422903422974
1.01400829 1.84983248 105.84996934 -535.464921617182
0.90381971 1.66379492  70.30011181 -535.431757260898
0.95346710 1.99894487 107.53736949 -535.449276412987
0.99129636 1.61112908 119.21343557 -535.467448252472
1.31416305 1.70276884 132.29623235 -535.400718464528
0.97822089 1.95800347 105.33411852 -535.455267299960
0.98473024 1.77562583  78.98057210 -535.460081458545
1.01264190 2.09896430  95.62849262 -535.440082890691
0.92468287 1.75484131 125.35505808 -535.458109919091
0.90487272 1.68489408 130.54815243 -535.453622911122
0.97584287 1.67481741  64.24550753 -535.422596410529
0.97699101 1.51715588 113.39330241 -535.458579383237
0.92381012 1.80866480 122.80369536 -535.456329469301
0.92127101 1.68821597  99.92370343 -535.474085518822
1.04240056 1.70595575  85.80261579 -535.463376871995
1.20043165 1.71640027  98.76020154 -535.444981382046
0.94793098 2.13053999  81.64435337 -535.435705811060
1.14001777 1.65732016 120.78011734 -535.448553592467
0.85570239 1.64622548 116.41460080 -535.457595225210
0.90425166 1.48272890 101.68832323 -535.443473550660
0.92223587 1.85902498 118.90563813 -535.455053284529
1.02082759 1.67823010 138.67737532 -535.443315784200
1.05950984 1.81383850  93.05887458 -535.463818986127
1.05187378 1.67903424 104.43474953 -535.470396972903
0.92802993 1.61812207 139.50917520 -535.444533215189
0.98224887 1.97212886  78.57525242 -535.449495831349
1.03707843 1.65844208  95.94961769 -535.469805832472
1.05499535 1.78955637 112.80250527 -535.462515899664
0.92061303 1.80294779 114.44325118 -535.464103160315
1.06252927 1.70471356  78.01389568 -535.451210386507
0.92290767 1.59415453 113.82802706 -535.468640590292
0.96530041 1.57300228 145.50105247 -535.434884662661
0.86598882 1.60812688 106.37953515 -535.462120530937
0.90685066 1.57136714  88.12684019 -535.452741631200
1.10946224 1.77759508  94.50588557 -535.459009559839
0.94894612 1.83532280  99.29630943 -535.469078645557
0.99768162 1.58634613 136.46186105 -535.447079434179
0.92321145 1.65730745 103.93823377 -535.474182671832
0.89179638 1.53971135  96.91922335 -535.453795057620
1.02845397 2.05319494 109.88306880 -535.439168720752
1.12460520 1.80625646 102.52628825 -535.455204674196
0.96886953 1.71200788 115.65398260 -535.471165308463
0.83097483 1.74253103  99.07757795 -535.451839993052
1.01992500 1.63058431  62.56751089 -535.408840765571
0.94244300 2.15631249  87.53934313 -535.434260484937
1.06054288 1.72092752 120.69870432 -535.459788431379
0.99187508 1.74712405 127.73621622 -535.456832350099
1.12418948 1.48944817 107.02395551 -535.434765738540
0.97582909 1.66528031 134.49576510 -535.452295940823
0.90303073 1.74170191 123.25914193 -535.458885131648
0.93932375 1.74132935 118.27591906 -535.467077910962
1.00000706 1.71267945 135.91110458 -535.447498854186
0.89643335 1.53611864 101.93286139 -535.457073555069
0.83025762 1.75195270  88.99029593 -535.446700585049
0.97202368 1.95797873 116.20134511 -535.448484233120
1.05211486 1.64896110  78.56667199 -535.448478706075
0.87961312 1.67517933  93.14118154 -535.464579162536
1.03954848 1.66294461  94.75211485 -535.469133646128
0.94639588 1.51265559  89.54664200 -535.443341953690
1.03366820 1.59480483 104.12572429 -535.467836570664
1.14294650 1.68495160 128.47006464 -535.439703539742
0.95149172 2.15193387  93.47610071 -535.435396978667
1.49556548 1.79155566 100.43939400 -535.382097463341
1.10606892 1.82251706  97.32635594 -535.457392155854
0.71377635 1.65042367 100.04010952 -535.364022850973
1.02034483 1.58485447  92.91229575 -535.461969786467
0.94001995 1.86651069 121.94819976 -535.452574110008
1.04592451 1.66867559  60.67092416 -535.409506987174
0.97872650 1.72568764 124.69417815 -535.462145162123
0.95583575 1.99940356  93.38882186 -535.452676390815
0.99025364 1.69397772  90.30562292 -535.470971189886
0.97650415 1.80077781 100.79463412 -535.471891243497
1.04815070 1.72273064 110.40257600 -535.468515520620
0.93735958 1.50390779 136.36473712 -535.437475191280
1.02116910 2.03092323  95.52677798 -535.447204556635
0.91584155 1.72612704  77.59302488 -535.454285119828
0.84144123 1.66464174  94.43679160 -535.454242439446
0.91224051 1.70796106 110.40798644 -535.471500152218
0.95383587 1.51161066 146.92661671 -535.425708223017
0.78425126 1.67594228  66.43223159 -535.377057638353
0.97526069 1.99041089 131.22138947 -535.428674844356
1.09098529 1.60867568  99.56531749 -535.460726404342
0.88938920 1.70429185  86.07547100 -535.461143868199
0.96353368 2.04540867  56.35858386 -535.416376328875
1.05099664 1.64899527  90.36846369 -535.463871102727
0.96152610 1.60386124 122.42276834 -535.465204124681
1.07892895 1.50363849 108.38221932 -535.446152410426
1.00165965 1.67912896 142.79403531 -535.438506892868
0.96720590 2.09354176  65.08367800 -535.426974794705
1.42217794 1.70429139 129.57534283 -535.383263051563
0.98079203 1.82235377 100.54571102 -535.470203462595
0.94176494 1.56482012  69.01108836 -535.410745491427
0.87370266 1.48144761  97.51055144 -535.434013836827
0.96590461 1.48007179 115.35901551 -535.448571243553
1.28588488 1.51626745 105.18113396 -535.410275113511
0.81809815 1.69363093 115.46568554 -535.443671418471
1.00753410 1.58097936 107.87351927 -535.468651472996
0.97870996 1.71393930 137.61898864 -535.445865569412
0.98601372 1.70839138 117.01698901 -535.469897130042
0.78406103 1.67110541  82.19296362 -535.412615366345
1.01216699 1.81836475  90.56845936 -535.467220616317
1.05783386 1.66014812 114.22807443 -535.466244317652
1.12402639 1.70193065 113.64446388 -535.456261043952
0.98966752 1.75084367  98.98119659 -535.474258672805
0.95259126 1.74772642  98.15535061 -535.474588482129
0.89294208 1.79531975  92.27145588 -535.464870540661
0.98006194 2.08894633 115.44771901 -535.433851512718
0.79463639 1.83974573 101.88231341 -535.426918275296
0.98613002 1.58934627 133.79963054 -535.451381130970
0.94304841 1.57070718  76.29859490 -535.433177225405
1.07872563 1.92522083 105.17795650 -535.450507626982
1.04154368 2.01562362 104.13605063 -535.445156956382
0.91458463 1.95229620 107.48818922 -535.451961507350
0.83151155 1.64330804 111.92507707 -535.451571741464
1.09309810 1.83724419  99.44924615 -535.458282746913
1.13413661 1.66482425 115.18199277 -535.453884900883
0.97278877 1.73314306 108.64638534 -535.474093611379
0.99773382 1.88932112 108.54502535 -535.460741310506
0.97464877 1.83505460 126.44590817 -535.451421564251
0.79815638 1.67926400 140.17839345 -535.406437294885
0.96529890 1.99557235  85.69856557 -535.451557064676
1.17802364 2.04587618 104.55022367 -535.420533853950
1.38228611 1.70814962  86.53839159 -535.401094332410
0.97921197 1.51075456 102.23074069 -535.455643106078
0.98097409 1.89318055 126.99158511 -535.444572894932
1.14417349 1.65285819  84.37273188 -535.443887176674
0.95965473 1.60657207 103.46794583 -535.472832958940
1.06132036 1.66341238  93.71376403 -535.466008282444
1.00193040 1.71102550  88.28537634 -535.469118252532
0.98553507 1.96906321  96.31757932 -535.455990446513
1.05228442 1.71601469  61.87533347 -535.419608692987
0.80142083 1.97555309 105.94606834 -535.414385102306
1.16409105 1.61772897 102.00827876 -535.449559972137
1.20684844 1.70816372 122.67361958 -535.433290640700
1.33221787 1.67151833  89.30742781 -535.412353267255
0.77192523 1.71999980 108.79908656 -535.418777187541
1.30678342 1.69282431  74.60965190 -535.402895648658
1.03598632 1.73630174  79.12329278 -535.456851837318
0.93266941 1.88366469  95.06185927 -535.463726186506
0.96078498 1.84632485 106.47409523 -535.466770630435
0.98988051 1.85183416  94.75150312 -535.467308401124
0.81282123 1.70448290  92.41185812 -535.441706577506
1.07058268 1.80937256 112.40561803 -535.459211808200
1.17121596 1.74379252 100.48337034 -535.450244211491
1.46151163 2.03040406 102.57228587 -535.365411682741
1.17961577 1.77662227 109.39177354 -535.444927007065
0.94019319 1.92515345  92.02514679 -535.459718860081
1.32595681 1.64317148 107.75497804 -535.418076280793
1.01478785 1.74630803  60.47286701 -535.420633093684
0.99531147 1.58371742 103.30233230 -535.469433893451
1.06858840 1.62876337 125.26656952 -535.455207973003
1.12235995 1.61685676 104.38521348 -535.457343901674
0.98929929 1.44365934 114.60945197 -535.435137396552
1.04586826 1.69018804  90.71027661 -535.466855182291
1.22852449 1.66582257 111.97696267 -535.437385442131
0.96975051 1.70319269 119.74664721 -535.468234695773
0.92984434 1.62614682 105.26548583 -535.473352676012
1.07835543 1.71516450  97.02951500 -535.466172091195
0.96161204 1.43835179  86.43891478 -535.406917767896
0.93742758 1.98187532 106.06533991 -535.451251167541
0.94825171 2.05399344 106.07619915 -535.443273164682
0.93652944 1.72948186 105.99628740 -535.474333699442
1.00678301 1.78182483 120.36456582 -535.461555799186
0.87171306 1.95828970 106.02021697 -535.444173751084
1.03083662 1.77386609  81.62630711 -535.460598546718
0.76634272 1.55323430 107.67919565 -535.407784608792
0.96109186 1.64459842  55.43417023 -535.382505122416
0.95569706 1.75463037  82.53197614 -535.464463055923
1.07891021 1.66892582  86.51432283 -535.457942429516
0.78458399 1.70583367 106.58245960 -535.428669965232
1.17813314 1.66827256 107.75372177 -535.448982173372
0.98039762 2.20801438  89.28147180 -535.429781302595
1.32298942 1.77885188 100.28057387 -535.417501080793
0.96066292 1.95984226 106.04916839 -535.454753829435
0.91883583 2.06874087 109.11679932 -535.437718664260
0.99607065 1.75130856 118.71334548 -535.465887722631
1.02005335 1.68679927 108.54991345 -535.472875954371
0.91072634 1.83114197 116.66613029 -535.458627961319
0.98567881 1.67644744  93.94562952 -535.473115389999
1.16834778 1.78941868 105.58510006 -535.447712678603
1.01330633 1.92418074 106.31887492 -535.457114936500
1.50240686 1.52246143 104.69318312 -535.370921226893
0.87749564 1.73494376 116.93907977 -535.460522467450
0.99803459 2.14083551 113.31587764 -535.429103383869
0.98451477 1.88530128 100.08818799 -535.464496346894
1.17568183 1.77946513  98.84117550 -535.447772065159
1.01356945 1.52755663 121.35186598 -535.454744777554
1.18399279 1.92888276 104.15784106 -535.432612346541
1.05819839 1.79470458  93.90293466 -535.465344609829
1.52286394 1.50357160 105.38982772 -535.363788227442
0.78795083 1.74524616 112.08358910 -535.426828624821
0.92136221 1.52861920 111.06268980 -535.460052603716
1.16727375 1.95971377 104.76178441 -535.432219884787
1.06341432 1.85851905 107.49791625 -535.458407687250
0.96013514 1.77082750 135.26296501 -535.445508113236
1.05365418 1.83915219 112.90116564 -535.458370639538
1.06458871 1.98531231 102.19034701 -535.446711714464
1.06422159 1.65739063 127.91635847 -535.453251634962
1.00739326 1.93870089 110.07015895 -535.453907823375
0.87379805 1.67762846 115.72815049 -535.462734388581
1.09935074 1.71089806  85.98513181 -535.456266953499
0.96995554 1.54634780  87.69441954 -535.450283392734
0.98791092 1.86182548  87.03281434 -535.463797393861
1.01879335 1.80425782  91.00819497 -535.467733719710
0.99774538 2.00480955 113.19361672 -535.444683845787
0.86316605 1.64138033 114.14997574 -535.460909879284
1.07986448 2.09214392 104.50415105 -535.431596482829
0.97370533 1.75252186  96.50008780 -535.474181202999
1.41851754 1.71444609 111.64629442 -535.398193237314
0.88293234 1.64543647  65.82610005 -535.411482842731
0.92771611 1.86252898 102.65893365 -535.464894580753
1.06912960 1.52414778  99.91495985 -535.449864285033
0.71143688 1.41988459 107.14122736 -535.312290148079
0.98129384 1.68391545 129.27132906 -535.458493938980
1.09858295 1.72253483  82.91979077 -535.453502616191
1.01432573 1.66525685 110.46301202 -535.472641028429
0.96427325 1.70489945  86.71054782 -535.468502591037
1.09943037 1.63533622 115.48159275 -535.458957229506
0.90700691 1.64512551  90.30637962 -535.465275258462
1.28041338 1.79204797 104.58269333 -535.425096292460
1.17526114 1.50037933 102.40845525 -535.427107345561
1.16552569 1.69334279  84.56463045 -535.442931092833
0.83988947 1.77332813  92.43335324 -535.451880565589
1.40030290 1.59287621 100.54172666 -535.398871005672
0.94982879 2.08831713 106.92244490 -535.438903847298
0.97286451 1.53483994 104.47359888 -535.462412347472
0.96706722 2.05981507 127.61493290 -535.425650998400
1.08578129 1.82385781 104.02294087 -535.459705547323
0.99694821 1.83281311 119.40826159 -535.458531583683
0.95235887 1.47061911  67.84810538 -535.367877405671
0.97162323 1.54679304 108.73742401 -535.465237976769
0.96711431 1.55772655  78.53011387 -535.435908730458
0.79251950 1.63349215  97.22957244 -535.431129573928
0.70824178 1.81980631  96.94439767 -535.350624039285
0.80639133 1.72098910 112.63756916 -535.438525202072
1.00961321 1.63101398 102.34462895 -535.472785328323
1.00193456 1.67850702 123.47921367 -535.464154619190
0.97136033 1.80041527  69.26308553 -535.444784987161
0.85904522 1.73845654 106.97161027 -535.461081726499
1.01494970 1.70444788 124.69074770 -535.461203780477
0.91850273 1.51663016 109.83795823 -535.457274218831
0.92848846 1.48645739  87.75831582 -535.430155142757
0.84941428 1.63795811 125.23728220 -535.448233084437
0.96871548 1.87038646  90.28545561 -535.464987995259
0.96137519 1.74037363 103.68781593 -535.475116297113
1.09089115 1.57640467 113.19680756 -535.457094491057
0.87329499 1.76330387 103.72411382 -535.464195425774
0.97351178 1.75365194  97.05720702 -535.474272921847
0.92498436 1.73660755  59.94600349 -535.414092647849
1.21573971 1.70243309  80.21764188 -535.428808800842
1.00071135 1.62420773 113.73404549 -535.470994932703
0.83099895 1.80052499 102.48226761 -535.448354798305
1.09294761 1.87275031  97.80942755 -535.455327122000
0.90566862 1.74377594  95.50481041 -535.470354228283
0.95631259 1.78826874 103.57291419 -535.472392212053
1.13042999 1.78901873  96.96732443 -535.455424118167
0.78762250 1.69583250 119.57550701 -535.423964858589
0.90780650 1.55932604  92.96044515 -535.456526048575
1.25811144 1.68303576 110.59390802 -535.431950650365
1.24082614 1.71470111  96.17376934 -535.436148268483
0.71815142 1.71125225  83.67321435 -535.357680293125
0.92821967 1.60659971 119.11757232 -535.466886933725
0.91212493 1.64133030 123.02504620 -535.463390999849
0.93669812 1.63211518 115.99470115 -535.470662713088
1.14892075 1.70277809 104.67040764 -535.455143518673
0.96031649 2.23534038  83.91991911 -535.426363390963
0.97833458 1.74673087 105.11214982 -535.474445465237
0.95524143 1.99061236 147.95989926 -535.403377051012
0.83548284 1.69955241 129.77808964 -535.436917617126
1.14685705 1.66140462  94.26510406 -535.452716349894
0.95778928 1.78497660  99.11308500 -535.472968553332
0.96072311 1.75464590  64.74835094 -535.432573177641
0.97944015 1.93542965 120.16501031 -535.447405615734
0.84848669 1.85523468  98.38740248 -535.450425691773
1.00542594 1.75467484 105.05764864 -535.472871655529
1.00032594 1.69625177  65.84189340 -535.430145221814
0.96316616 1.86230247 132.04794043 -535.441393668811
0.96572131 1.85797980  81.86244197 -535.460603936085
0.93826246 1.83371626 102.62065501 -535.468316934053
0.88319435 1.86027598 101.40712339 -535.459012909227
0.82940089 1.61738326 111.61734932 -535.449850072543
0.99009365 1.73614221  79.70854391 -535.460559192051
0.90705855 1.61025804 137.96198012 -535.444577317967
1.03783990 1.78458509  97.55408774 -535.468958096640
1.06051477 2.17565695  99.11219334 -535.426505338057
1.01500736 1.74579072  74.67836370 -535.452010504412
0.94249909 1.59019555 125.88357759 -535.460748078177
0.94123123 1.59861742  75.21611655 -535.436901151330
0.93417758 1.59989999 118.63235095 -535.467175327937
0.84955120 1.70272183 108.08985663 -535.459214783908
1.00580859 1.52447274 108.21975587 -535.459296759443
0.92199075 1.66324247  83.75208264 -535.460645788867
0.96716506 2.10740382 132.86737321 -535.414899525703
0.89004718 1.58187438  97.42656945 -535.461573977269
1.22574584 1.70281900  82.89887603 -535.429889575841
0.96199896 1.61813828 145.05337832 -535.437414330968
0.88912346 1.74917603 114.80983442 -535.463568354949
1.37806312 1.67682324  73.76475454 -535.386368732169
0.97814851 1.77158694 108.01321032 -535.472137746367
1.02927617 1.56775209  85.89468110 -535.449471286910
0.89641132 1.77762250 121.86952116 -535.456624773922
0.95404597 1.97141269 112.24728056 -535.449710969544
0.96987611 2.09311067  93.98563107 -535.442298428747
1.13524594 1.69868006 140.17296761 -535.424243810270
1.05138634 1.57899287  90.11933016 -535.454983548294
1.00880339 1.80018108 110.05588530 -535.467709676077
0.83518918 1.76224657 110.38834402 -535.450312623470
1.00844124 1.67498877  75.92743588 -535.450076795168
1.04100456 1.87772021 106.40014186 -535.459585334395
0.95239675 1.65786346  99.86885016 -535.475214159514
1.19934000 1.71603449  90.92878825 -535.442212435094
1.05252918 1.67397655  86.13568580 -535.461198019072
1.26866001 1.86988882 102.39284068 -535.421840833552
0.99245901 1.62278338 117.89150471 -535.468920005128
1.07174399 1.67803923 100.93846277 -535.467739685450
0.98768056 1.83151707 139.41271003 -535.433231706859
0.95766012 2.14636552 108.70433384 -535.431652733135
0.87026260 1.66495017 115.51162851 -535.462154240161
0.93607428 1.45858134  84.43448994 -535.411801678109
0.96818195 1.58467460  92.99899908 -535.464481517383
1.40775681 1.69892087  63.67318620 -535.372334988109
1.04082364 1.71869421  71.86643635 -535.443710237798
1.03033129 1.71517184 101.65596552 -535.472629348342
1.48195975 1.67890449 115.68631330 -535.385061988183
0.93088137 1.86649450 116.12415773 -535.457458736219
1.07372450 1.85835259  96.14146692 -535.459287607221
0.97668344 2.23678228 101.79178061 -535.425111552462
1.44620967 1.87481010 105.11223308 -535.384137217440
0.96941089 1.73873321 104.15459803 -535.475115002616
1.29660000 1.69568448 121.01005471 -535.416996883201
1.02819398 1.60940469 110.61158103 -535.469119870301
0.95768004 1.89863349 101.73506786 -535.462973942331
1.29189814 1.70043766 103.57164824 -535.426457136906
1.05792426 1.86715074  99.28689146 -535.460521819038
0.92208218 1.76256529 140.22516313 -535.436876924194
0.97268103 1.76137810 110.89826208 -535.471543144021
1.47055839 1.66373178  98.18064899 -535.389309991968
1.29549929 1.68689003 104.46960278 -535.425676066317
1.07003308 1.66353236 125.87039832 -535.454764171137
1.00728721 1.63513624  92.40418597 -535.468521543101
0.93443161 1.72983110 100.96428423 -535.474690218689
0.99886213 1.88731230  93.36534285 -535.463606306201
1.10338395 1.75171081  95.15448142 -535.461152621439
1.00720252 1.69820986 125.36886327 -535.461267525003
1.17701744 1.99272908 101.16277205 -535.427870557104
0.95379314 1.69508207  94.92958801 -535.474291482607
1.29290697 1.64947470 108.75191139 -535.424912837683
0.85734516 1.66852189 113.12810578 -535.460073202385
1.05056717 1.69573160 138.35346625 -535.440030255042
0.94937754 1.90441834  74.61984661 -535.450009805148
1.07535385 1.57315536  91.43798552 -535.452335225327
0.92788090 1.94657525 103.96881979 -535.455504918370
1.04057742 1.68782140 110.85584227 -535.469991301705
1.17986030 2.11720312 101.86720665 -535.413090722950
1.23136496 1.66660818 112.01022299 -535.436798861217
1.31245342 1.69322764 101.38484528 -535.422167926920
1.07416699 1.77482328 107.77599762 -535.463692292017
1.22113645 1.70885569 114.26377991 -535.437228069534
1.32866543 1.60146413 106.63032576 -535.415067813665
1.15528425 1.71011579 104.41048749 -535.453897425183
1.14926831 1.77916458  98.82882819 -535.452758682078
1.16307607 1.61481931 107.05034040 -535.449712607833
1.22899489 1.70440646  91.44226586 -535.436403557741
1.32431747 1.66482779  89.28431293 -535.413619750616
0.85020318 1.93656717 107.88362334 -535.439628482384
0.89960556 1.64939438 118.20075358 -535.465922891339
0.80204270 1.96732792 102.06689804 -535.417154453000
0.92009954 1.59463316  76.20690387 -535.436556089421
0.81784463 1.66513266  83.66472904 -535.433325872790
1.03326137 1.76200718 110.84354233 -535.467954915428
1.00310420 1.72208692  83.12536273 -535.464025081129
0.97950339 1.87081763  97.16729050 -535.466180934714
1.10935542 1.69509153  91.65086330 -535.458839144223
1.04921033 1.74786031  79.27666448 -535.455977448213
1.12648979 1.75667036  99.19608369 -535.457890689231
0.84111414 1.73872724  91.99671603 -535.453224863080
0.98137383 1.57780948  83.51516348 -535.450452611839
1.08156374 1.48951610 101.30934839 -535.439217110782
1.02558234 1.58928503 102.49927085 -535.467695400143
1.03442110 1.63063255  95.74770892 -535.468179879930
0.76231489 1.73506614 100.89973110 -535.411918501233
0.72822720 1.60761678  94.85029889 -535.374613435473
0.86526392 2.02563164 105.69313918 -535.434538636433
0.77904079 1.72177170  93.44584782 -535.422442970460
0.86869866 1.78764146  98.39221396 -535.461733630587
0.97961041 1.92104881  59.61556010 -535.425672148210
0.95469724 1.78297144  65.23626447 -535.435193065150
1.06071444 1.60865341  95.38360670 -535.462817031471
1.48469738 1.66203762  90.71133858 -535.382538580341
1.44678794 1.54639419 101.74167232 -535.383969578665
0.93309503 1.84982342 132.16961306 -535.441378223628
1.06971681 1.72848734  86.30701625 -535.461062084425
0.76309493 1.71160022 130.77800375 -535.393864315948
0.96296612 1.97203453  85.23879667 -535.453659215467
0.90105592 1.64480335  91.37046893 -535.465410289305
0.99407609 1.85104638 103.32809849 -535.466786001615
1.01690568 1.47937258  98.82366783 -535.441414334057
1.27750170 1.71189200  91.33594356 -535.426356513110
0.85764900 1.67613485  94.72441921 -535.460065651529
0.93942294 1.80434808  61.73844686 -535.426579833126
1.03608501 1.68828668 113.60810760 -535.469055199740
1.13887876 1.68350225 102.21176779 -535.457121846558
1.18691934 1.65825790 120.86037594 -535.439661705127
0.87406502 1.78575576 118.24182426 -535.454969239228
0.96046147 1.71362021  81.47343051 -535.462549791263
0.96293143 1.74049482 129.12974374 -535.456182131288
1.36939133 1.61611438 108.39912320 -535.407758650512
1.16632795 1.49748757 103.61824949 -535.428505854909
1.17271595 1.73667500  99.77751632 -535.450145462400
1.14949833 1.64169610 114.53697216 -535.451070105439
1.39191991 1.69383383  94.04276751 -535.403728268193
0.95890651 1.66117621  73.93796850 -535.445180857406
1.25925642 1.82126121 104.09952936 -535.427536126584
1.26649527 1.65286566  97.20790277 -535.429838681317
0.97488588 1.70136825 111.01841111 -535.474128789542
0.97417669 1.61849650  89.66683833 -535.465632548930
1.47499857 1.66458544 102.02094754 -535.389387553536
0.88473017 1.55955864 100.03281995 -535.458607978501
1.04883783 1.68292232  96.44638631 -535.469579746551
1.19078750 2.26701275 101.82586800 -535.395499745124
1.03211548 1.52044991 108.14021535 -535.456113898976
0.89280309 1.71598054 115.64656725 -535.465435771008
1.03599497 1.70405277  86.81335655 -535.464969603059
0.94935497 1.52428066  97.37733703 -535.455954575060
0.90632165 1.54863023 112.62574818 -535.461806250051
0.95174814 1.71737337  72.58703875 -535.447456819750
0.95262420 1.89311799  57.36750299 -535.419439193367
0.94544165 1.70955348 124.75507880 -535.462750303436
0.89949646 1.90270648  96.31192439 -535.458139322578
1.05179861 1.62210893 110.37351253 -535.467438314367
0.94259540 1.42624564 103.79746822 -535.424658692544
1.04590466 1.71026094  83.42930092 -535.460561195339
1.47505516 1.61241872 103.02951210 -535.387169936053
0.97804563 1.65680310 113.84003353 -535.472926020317
0.80346154 1.63874277 112.30386195 -535.438297756973
0.85001924 1.68946921  91.88921550 -535.456182214815
0.74735251 1.84618564 102.59829707 -535.390669025392
1.06674277 1.62643105  99.78082577 -535.465842396974
1.34926910 1.69862283  75.18128387 -535.395519297636
0.97006625 1.75174824 100.69906378 -535.474805957296
0.85399048 1.66004802  76.67970630 -535.434557733120
1.01400465 1.59475702  83.78326085 -535.452621240266
1.25303213 1.78956082 100.02620812 -535.431589534379
0.94486813 1.89228817  71.64967011 -535.446488175689
1.21475695 1.48351587 101.97927278 -535.414055985988
0.98845312 1.42620875 124.21629315 -535.424034947929
1.39842065 1.85449116 103.17603916 -535.396037446701
1.00507197 1.70363069  76.38613663 -535.453396420377
1.32267231 1.58730280 101.56346206 -535.414186002315
0.92930408 1.75020489 100.36165932 -535.473553732696
0.94428913 1.61351815 131.17880024 -535.456187454569
1.27936022 1.68062214 129.32949020 -535.412042394304
0.97214643 1.66643002  99.43810123 -535.475468811727
0.73789357 1.51133387 105.14692231 -535.374061484956
0.90278646 1.94996381  94.08967083 -535.453587458089
1.14162471 1.83236777 102.23038852 -535.450278459228
1.02280385 1.63517618 111.79418665 -535.470657938830
1.05385108 1.71665958 124.17881079 -535.457305866038
1.08541396 1.52075674 104.88470552 -535.448888112173
0.85244605 1.71317156  87.02231770 -535.453136386397
0.99693287 1.73491572 143.56648779 -535.434516763234
0.68299540 1.70465820 123.38345528 -535.311526062295
0.97282490 1.52555686  83.13597407 -535.436461598521
1.00684180 1.75607801  70.40590269 -535.445120821431
0.90274906 1.72460463 121.43335801 -535.461722326259
0.98919343 1.67932899  87.52176639 -535.467952873929
0.99634301 1.90892544  99.68193169 -535.461716679989
0.84349071 1.59454056  94.43137151 -535.449059765661
0.92403158 1.89718061 111.81065731 -535.456752834916
1.14098859 1.68250239  81.34075967 -535.442963430708
0.88791302 1.72634313  81.23880593 -535.455452783699
1.03001553 1.64543998 119.61069684 -535.465446308200
0.96791517 1.47202446 110.49745805 -535.446508653098
0.84199590 1.67615547 105.57495003 -535.457504410017
1.04598095 1.73762262 107.89228611 -535.469202195610
1.50411566 1.70045506 103.17938255 -535.384215130459
1.00694132 1.56239511  80.01679054 -535.439403549587
0.83207798 1.64976778 128.49272169 -535.438623177199
0.92513322 1.86919069  95.41543421 -535.464483259979
1.17910273 1.65326649  96.56202718 -535.447354057283
0.80024134 1.70089455 123.60757139 -535.427472983012
0.95009571 1.81626022  87.91804375 -535.467201543562
1.30560465 1.94672802 102.18890757 -535.406477761939
1.43954214 1.58676246  99.52689574 -535.390215643245
1.11913482 1.71959393 116.14950235 -535.454875324986
0.91029022 1.80647952 109.56413182 -535.465668691073
1.28555464 1.73791542 103.75370392 -535.426949981279
1.11677856 1.64122080 112.54441222 -535.457876417542
0.98304723 1.64468717 130.30762338 -535.457676628286
1.10136951 1.87242824 106.72654529 -535.452017292704
0.92971430 1.79036557  85.26781801 -535.465205332059
0.85934084 1.72236414  99.78071196 -535.462357362667
0.89090745 2.25934390  99.96793624 -535.416287445080
0.74095758 1.55927591 107.60421952 -535.386966877762
0.93991693 1.72214272 135.91862142 -535.447569321046
1.01049496 1.53706612 117.85747108 -535.458897376268
0.91781495 1.56922697 112.41590670 -535.466077026062
0.98179619 1.70625554 109.03119290 -535.474668527571
1.07264158 1.67907148  83.49027635 -535.455961680071
0.96571393 2.11798863  87.59872298 -535.439142321544
1.18978957 1.70519179 115.59062237 -535.442718187812
1.03644620 1.69944703  96.69659964 -535.471247488364
0.94094269 1.85243323  73.81914073 -535.450798269404
1.01707740 1.67753407  73.78467816 -535.445699534523
1.20846723 1.69791571  86.49567130 -535.436702012512
0.99980657 1.68331976 108.30365288 -535.474433133441
1.04916679 1.77017513  95.65711813 -535.468095872171
1.21887891 1.74531309 111.95164323 -535.437617145409
1.05401819 1.73268243 133.12035373 -535.445346083434
0.93554521 1.86759668  84.21085999 -535.460756097245
1.07966279 1.68901150  72.12123503 -535.437809199287
0.90174361 1.57238930  84.61338301 -535.446681457997
1.15346609 1.71759946 122.40473370 -535.443449323302
0.92172728 1.81073966 117.79171479 -535.460824626007
0.89341065 1.67313149 109.65942892 -535.469691243842
1.04244527 1.69000934  70.25713645 -535.437837856780
1.11373218 1.76784938  96.04724428 -535.459127034500
0.91497233 1.86941355 108.15417741 -535.460925511261
1.09235516 1.85431007  96.63437225 -535.457001896804
1.08797414 1.71967238 108.68066418 -535.464019969740
0.78269045 1.74335204  86.70878814 -535.419530736371
0.83008278 1.81859889 108.41657244 -535.444623267551
0.84799138 1.73987058  89.71899457 -535.454066431483
1.01796053 1.55662217  95.44297688 -535.459438397122
0.93880343 1.89803335  90.83762268 -535.461921628098
0.92975443 2.01587825 110.41552911 -535.444285796328
0.81740877 1.64506863 127.09802253 -535.433961377806
0.95172712 1.75247089 116.23713540 -535.468508673603
1.00510164 1.94060706  98.45069884 -535.458069526509
0.98509920 1.84857357 108.28690931 -535.465506543691
1.00611990 1.77734133 142.07150536 -535.433048737014
0.98329448 2.18545084 107.31743605 -535.428175557892
1.20866526 1.71527987  90.74308488 -535.440229987044
0.97988640 2.12189535  96.56849013 -535.438715587992
0.87144509 1.68505376 114.17028072 -535.463026232961
0.92942712 1.78301424  74.71056094 -535.452240371838
0.97872401 1.59843686 101.52332304 -535.471378660025
1.05889469 1.65696582  98.02612809 -535.468102369134
1.05395356 2.13867795  98.66521321 -535.431406884538
0.88898711 1.80940258  93.40221185 -535.463738910572
0.94986602 1.71184162  75.40716523 -535.452478894813
1.14282326 1.77224608 111.69923527 -535.450893359032
0.94987721 1.70276934  88.48672562 -535.469864612066
0.74870834 1.61459131  99.46492545 -535.398321690710
1.07550274 1.56802859  96.30612995 -535.455716261730
1.36127624 1.67821862 126.14361674 -535.399333196133
0.71426750 1.74145429 101.62507970 -535.363835128593
0.91953196 1.64469065 146.73128070 -535.433305785588
1.42675599 1.67696453  96.05244764 -535.397306639480
1.00249710 1.66651350 143.90160210 -535.437133839984
0.86582614 1.59863531  87.19271270 -535.448184381140
1.03058749 1.79980749 102.58882842 -535.468581613952
0.85329592 1.63504142 121.88057676 -535.452559208839
0.91799117 1.69525437  77.76953080 -535.453160500235
0.97039253 1.64411961  60.05768956 -535.402337645151
0.81780202 1.69023534 109.06222915 -535.446781167362
0.86073177 1.60256411 120.73244135 -535.454421290376
1.39630850 1.53522554 105.76871727 -535.392591106599
1.52667506 1.67971744 100.25723568 -535.379951464316
1.00782803 1.63704354 122.99321873 -535.464212356612
1.25060398 1.69949144 132.04413480 -535.413907511992
1.17681274 1.43914092 102.05736457 -535.404199121968
0.86702634 1.78178851  87.99729189 -535.457342174398
0.98895947 1.56962182 102.53228336 -535.467585907065
0.85725376 1.96288954 103.35715876 -535.440683869771
1.09487148 2.17747293 102.58375060 -535.420749804560
1.26459648 1.71190445  83.10350177 -535.422514547713
0.93862632 1.74380639 143.85456108 -535.433808550486
0.94418288 1.80410768  85.05300264 -535.465438212226
0.94477694 2.16380084  90.75023338 -535.433849728825
1.13285652 1.57505263  97.92515361 -535.448758501675
0.94404732 1.83269951  99.82157648 -535.469073178556
1.19385137 1.69238076 105.76006323 -535.446429478172
0.93892506 1.59879193 112.61862390 -535.470552016728
0.89613560 1.55807858 103.25175488 -535.461730138731
1.24623001 1.69641829 103.68689115 -535.436007145572
1.03129421 1.60466383 117.39719445 -535.465241422648
0.89105332 1.63371546  65.57744723 -535.410027304302
0.95336425 1.88611114  88.40368586 -535.462694326401
0.80840734 1.72492663  96.70684541 -535.441451408930
0.84376484 1.69399025  78.54510858 -535.437774418133
0.92668504 1.89023970 121.55279184 -535.449449696303
0.90336878 1.70459046  71.82543087 -535.440043472043
0.95603254 1.49432644  86.02395559 -535.431291970728
1.04705099 1.63782660 134.95655283 -535.446358062462
0.80439179 1.63841089  86.77599067 -535.428589290589
0.97499586 1.88190867  75.94048773 -535.453267030333
1.27549064 1.66617007 120.38473206 -535.422232055995
1.15149667 1.48570557  98.06901451 -535.424027205178
1.41829315 1.65291321 102.04542213 -535.399917751686
1.07889324 1.73009076 100.75539050 -535.466413175518
0.82357846 1.76036614 108.89840154 -535.446335158907
0.99038572 1.76399559 115.50253574 -535.467926257868
0.95369704 1.96720313 115.32976838 -535.447896629244
0.89556088 1.74432250  80.00259714 -535.455498221915
0.99727216 1.49377276  94.83527282 -535.443738948022
1.12541541 1.70387862 116.15951927 -535.454315421134
1.12116499 1.71968154  95.53362679 -535.458967644402
1.05628316 1.67328466  68.57202927 -535.430929912085
0.75335974 1.56970928 102.36476794 -535.398573463638
0.89626728 1.51847318  93.81457881 -535.446061595864
0.93621422 1.55107734 136.91581025 -535.444211320709
0.79281664 1.67808427  78.95455653 -535.413180313649
1.07286679 1.72071255  95.26395124 -535.466319264126
0.98421107 1.90369912 138.54391380 -535.427309186311
0.99135407 1.83625940 113.76898060 -535.463156918811
0.86121984 1.57626066 105.42937636 -535.457502687459
0.94149075 1.48982749 122.67282239 -535.447510930920
1.05718487 1.99568328 106.86368544 -535.444567522674
0.95626472 1.56776997  91.18274804 -535.459561396180
0.97538408 1.86112877  72.63984773 -535.449854150456
1.05896526 1.73239053  74.76211325 -535.447855912359
0.79791829 1.78943270  94.29519358 -535.432171484695
0.84659253 1.60060556  88.15086806 -535.444056663318
0.78601008 1.71803035  87.88719558 -535.422897322681
0.93270470 1.59076391  74.34775011 -535.432375106047
0.95488124 1.74228931  56.83776476 -535.407281027389
0.93697579 1.75450392  70.61143767 -535.444619932674
1.01075870 1.69098891 132.83237789 -535.452055324024
1.47641220 1.70858137 104.70347167 -535.389116056743
1.14397964 1.76998563 110.51331891 -535.451475263650
0.82655651 1.69844802 112.38459552 -535.449062967071
0.81648097 1.67308100  89.85217629 -535.440624487523
0.98441781 1.87026375  99.34059534 -535.466037124451
0.76594600 1.68587560  65.82245671 -535.363464764127
1.08287791 1.78730433  97.25110236 -535.463166309510
1.13860461 1.65429867 122.89476269 -535.446830087866
1.00124097 1.73349742 104.46598119 -535.474181926017
1.06393390 1.66589467 111.09978249 -535.467077007156
1.01634255 1.63223847  90.10490762 -535.465559016181
1.20630451 1.80094627 107.57232065 -535.438781091143
0.79653693 1.83682111 108.87673614 -535.426018410295
1.01922712 1.64920794 112.91518687 -535.470904467651
1.22357558 1.65512387 115.91390040 -535.436093421545
0.90105958 1.73959258 128.83679022 -535.452322454048
0.97272711 1.75107352 100.79554950 -535.474809023551
0.78157510 1.67416807 122.21058444 -535.418432924035
1.09657483 1.68759037  84.36627734 -535.454122725446
1.05127149 1.73631771 116.37537654 -535.463865625543
1.02534639 1.66092314 102.46360465 -535.472882104488
1.00130097 1.58802066 115.85965419 -535.467329485345
1.00469510 1.91269810 110.66474139 -535.456623614494
1.06022312 1.74667625 108.95880006 -535.466657375190
1.31788163 1.68269012 108.08218600 -535.420369595062
1.12070132 1.72336912  76.93008935 -535.442489013364
0.83302600 1.90365979  99.03026098 -535.439841922393
0.94898384 1.70668123 117.02686725 -535.470158993877
1.12815018 1.69168014 126.41562240 -535.444568426233
0.90670375 1.70599030 115.07951041 -535.468305469642
1.16692455 1.72411183 107.72382169 -535.450592024194
0.90210203 1.79623917 106.24084296 -535.466797643077
1.20542529 1.62782871 111.84772290 -535.441006175525
0.97628290 1.57963670 142.45845689 -535.439390313201
1.05411246 1.69127412 120.17905031 -535.462094509837
1.03122745 1.72322800 121.36385866 -535.462362665806
1.18574546 1.72024775 119.57959702 -535.439877086617
1.00466133 1.78322377  94.93669381 -535.471250256889
0.93484687 1.61208469 123.38208002 -535.464080209058
1.20864523 1.69896007 124.91628430 -535.430906847690
0.92532420 1.88938632 107.12172455 -535.460365324004
0.92559535 1.76111680  59.04452160 -535.414065075465
0.95561466 1.82679852 137.26784240 -535.437291486108
1.25785866 1.67857834 111.26270010 -535.431731801400
1.02680187 1.96531189 107.39082322 -535.450913170418
0.92004585 1.85128714  91.52515280 -535.464587600334
1.04965429 1.55306806 101.40737496 -535.459296012689
1.35267839 1.75220449 103.68215922 -535.412359246376
1.01058988 1.89550940 116.54897898 -535.453831594723
1.02288077 1.68736658  84.41220286 -535.462909299772
0.97039136 1.81259810 131.84327603 -535.446657288941
1.05554612 1.65011725 114.22879097 -535.466376181432
1.34596263 1.73831778 103.67504141 -535.414309782770
1.19029780 1.79854124 105.41147842 -535.442890265789
0.98708384 1.70294950 113.35199573 -535.472505171852
1.21486437 1.60043726 104.14516707 -535.438309949805
1.30822428 1.72392352 107.59066311 -535.421840822160
0.70231980 1.60395840  99.27757270 -535.346217626325
0.86823988 1.70037431 102.37483037 -535.465394375985
0.98731151 1.63476594 100.98122143 -535.474015391052
0.86991408 1.87159018 103.24983216 -535.454423381820
1.20931155 1.85151259 103.12531778 -535.435517573986
1.13062763 1.59265858  96.64721450 -535.450925966836
0.98330168 1.60327881  94.14701758 -535.467793575731
1.13247629 1.70183941  86.59209253 -535.451181972561
0.92427191 1.81316043 119.21303687 -535.459550095249
1.04279258 1.57721746  92.91028853 -535.458555866309
1.11131174 1.46416526 105.21552681 -535.427873570478
0.98563708 1.72749996 101.79689368 -535.475350266324
1.07877269 1.68176562 125.21985208 -535.454015461207
0.95975026 1.70543920 125.78980714 -535.462094863981
1.21013976 1.62226222 104.03173414 -535.441106533139
0.99270818 1.70142398  88.49597713 -535.469556712754
1.18285217 1.71743145 116.02645462 -535.443382327820
1.09848889 1.71481620  79.71954455 -535.449373654037
1.00166462 1.82141275  90.27161311 -535.467550963607
0.90219156 1.73328988 136.63741577 -535.442313340135
0.87895865 1.71328747 109.82538413 -535.466128461526
0.98411672 1.77600186 103.41356831 -535.473024450814
1.06166195 1.76863915 102.73747013 -535.467057760790
0.98666396 1.86527611  74.78394259 -535.452466602231
1.20254884 1.68799604  95.99271329 -535.443716820271
0.98309074 1.92954567 130.87401237 -535.435614381498
0.91680623 1.62511805 118.74330447 -535.467077385471
1.22202293 1.51434525 104.33262946 -535.422456727189
0.93690612 2.08221838 116.45280540 -535.432772465373
1.03849804 1.67674511 138.80002709 -535.441411315503
0.94809525 1.68461029  99.53548196 -535.475642840721
1.27759210 1.77615954 104.17006314 -535.426761034605
0.86352477 1.60602658  92.87215487 -535.455260458468
1.08684953 1.80218919 103.41291617 -535.461353491498
0.98306362 1.70953101 102.41214758 -535.475833495968
1.02471188 1.74623859 122.78204318 -535.460270350902
1.41050019 1.68172529  95.23016970 -535.400296333581
0.88862813 1.70216498  98.20276898 -535.469189014431
0.98431548 1.68341132  90.52674903 -535.471025657087
0.87544931 1.60584939 119.93924562 -535.458824327236
1.19309675 1.65529748  96.57407369 -535.444718836258
0.99724180 1.95763321 101.05542434 -535.456130417796
1.01162960 1.57446997  79.49036857 -535.440949978303
1.06923876 1.68725288  74.42540102 -535.443194031637
1.00801398 1.60021573  82.94883844 -535.452603239825
1.22287661 1.90980784 101.95725390 -535.427526575778
0.87633609 1.43427920  93.27739954 -535.408516167727
1.23911671 1.75365904 104.72913831 -535.435826655340
1.04450625 1.62512523  84.11028075 -535.455023676187
0.98335247 1.95718153 121.87403145 -535.443129815300
0.95321958 1.63482124 107.40279050 -535.474677476805
0.88036275 1.79286063 116.51139572 -535.457225451151
0.86412881 1.47180869 104.35671803 -535.433534646502
0.87187749 1.80941718  95.34634712 -535.460583983814
1.10127742 1.76194886  95.39389758 -535.461208308913
0.91069913 1.66421769 145.18732233 -535.434258219128
1.01488484 1.68373943 100.93496222 -535.474064453987
0.97431521 1.78509052  90.61609274 -535.470560208666
0.71450524 1.59874824 101.41350950 -535.362021414582
0.97898230 1.87966922 134.30583084 -535.436293794907
0.87310444 1.67844328 110.45422853 -535.465327847025
0.97045118 1.54617456  98.34452413 -535.461878559398
0.72840405 1.99906932 105.24149675 -535.353013146441
0.79273148 1.71941467 107.52548738 -535.433064176004
0.83319850 1.66653685 142.12675238 -535.420582598979
1.08034315 1.70654110 112.58384150 -535.463708590865
0.90199343 1.53929200  99.33548926 -535.457106533241
0.93599201 1.44920589  95.06416188 -535.426473795280
0.95560219 1.80810159  94.67328655 -535.470811366334
0.83383896 1.76028808 101.68514228 -535.452275759561
0.95565860 1.80909432 136.11463788 -535.440758283111
0.99334366 1.83202188 122.52758008 -535.455635104157
1.27048169 1.65036766  97.03681129 -535.428809085518
1.03947726 1.72850406 108.28269166 -535.470145241336
0.97251102 1.75173830 113.33624291 -535.470716122808
1.03045745 1.82333960  91.46782346 -535.465809614052
0.78194447 1.70449357 138.81063463 -535.397061652186
1.34094178 1.70723393  92.91501419 -535.413853914685
0.97894786 1.75258391 146.17886540 -535.429662386877
1.12171647 1.55257254 102.00300770 -535.448804080363
1.28809703 1.68987946  62.07625081 -535.388692728361
1.20728070 1.75493250 103.69192102 -535.442460883431
1.00572056 1.72583873 130.09393186 -535.454411830260
0.92489939 1.85523919 105.47139219 -535.464524319380
0.96284343 2.11219900  62.29485271 -535.422313782188
1.07011091 1.62883250 118.49574431 -535.461058543611
0.94918708 1.94256844 114.35451749 -535.451385948358
1.06869397 1.74514461 100.08425369 -535.467325451612
1.05443662 1.70341903  80.36593439 -535.455468443596
1.01613841 1.93635987 103.73442546 -535.456583771359
1.37175561 1.68694121 123.29373379 -535.399973435339
1.05864923 1.93935502 109.12015946 -535.449652390227
1.04829567 1.60245241 122.62186688 -535.459166843350
1.39344873 1.68379037  86.81191968 -535.398243256557
0.99607852 1.86954222  89.08585079 -535.463929783184
1.01138829 1.64227824 100.35591451 -535.472913326342
1.20949321 1.69047926  94.50816599 -535.441746255355
1.22148467 1.84843422  99.25613329 -535.433920858060
0.91236831 1.62423183  87.07769521 -535.460250520829
0.97907984 1.57037373  70.49527467 -535.418661658505
1.01581079 1.92955766 107.08567064 -535.455986065385
1.05733919 1.61057446 118.81546375 -535.461641354628
0.80847685 1.59459196  91.11568750 -535.430839137368
1.04034189 1.47855452  97.38125663 -535.437580860863
0.94068676 1.96832048 105.48292383 -535.453299923208
0.84799788 1.74694361  94.33034860 -535.456597544335
0.94317437 1.97034465 103.94112446 -535.453814215593
0.91284121 1.67010568  82.84070628 -535.458872806734
1.30866594 1.66148644 108.40565829 -535.422016489503
0.97022449 1.58597280  91.27851883 -535.462928803712
0.91191001 1.67945069 145.79819137 -535.432834369149
0.94760990 1.81723487  67.52050780 -535.440809286761
0.96860675 1.63814834 135.47860277 -535.451308274332
0.94323541 1.75644468  98.93897660 -535.474014143365
0.98434922 1.67850522  78.13593003 -535.455252753382
0.97543044 1.70528144 103.81278984 -535.476030492326
0.84253856 1.65817271 118.52151582 -535.451974915144
0.97518974 1.84980267 135.94215869 -535.437044278492
0.98581864 1.78074301  97.18833574 -535.472756754235
1.05607222 1.70195724 121.22204494 -535.460595157554
1.03290383 1.58094197  85.87074780 -535.451752792836
0.82701448 2.20432737 105.35264918 -535.400522641388
0.97501317 1.58504900 104.88564430 -535.470629544374
1.05274076 1.66128192 137.89925173 -535.441415335647
0.99078225 1.96595655 122.46008140 -535.441306493771
0.92940849 1.81972007  80.49909392 -535.459465163507
0.77786645 1.83134735 106.57366667 -535.415594610862
1.03673905 1.62962666 129.40468801 -535.454534245106
0.94077006 1.75505749 110.06991472 -535.471813601118
0.91794674 1.69277341  55.78215038 -535.390509268858
0.77871312 1.72839790 117.94865468 -535.417792751371
0.97831547 1.69318233 121.41364114 -535.466883671152
0.98446751 1.66639902 132.40005676 -535.454810272343
0.96305028 1.63401327 128.37403337 -535.460276145978
0.95757067 2.10558332  91.14864463 -535.440735472804
0.93534751 1.69079245 102.17267705 -535.475438981775
1.13560357 1.68382401  66.67459681 -535.418920030907
1.29682580 1.79716528 105.09088883 -535.421182507139
0.98663966 1.84147889  88.28839524 -535.465926885920
0.90307566 2.11261621 106.10850628 -535.432049533157
1.01183590 1.59689927 130.58352999 -535.454163165481
0.90196314 1.63084117 102.81472727 -535.470527669137
1.07064485 1.55922701  95.97279245 -535.454539856515
1.03610845 1.68458403  77.95540214 -535.452489502456
0.92158783 1.56557974  74.51563815 -535.425374129186
1.46445606 1.69894917  81.09208657 -535.379311710449
0.96849328 1.93125668 121.28639620 -535.446855362201
0.96876605 1.47525795 120.46430846 -535.444973941182
0.97291699 1.70252359  54.57431457 -535.393199588543
1.13366511 1.78775470  95.97653772 -535.454768670000
1.00478550 1.58476658  96.87880134 -535.466249872775
0.95952855 1.46842117 101.29372256 -535.441686751761
1.17156919 1.59365698 104.03701888 -535.446141933601
0.99149746 1.69944561  95.23964359 -535.474029227802
0.77106682 1.74802815 111.96081891 -535.415154172890
1.18598751 1.54450350 105.99474577 -535.436420908503
1.12982827 1.80061777  96.96597502 -535.454853961845
0.89283463 1.93676221 106.00326976 -535.451227958786
0.88339256 1.72322689 134.61584130 -535.442722829731
0.77322207 1.66381629 123.40988836 -535.411754739198
0.80052092 1.72758758  77.23475344 -535.417563041190
0.84038334 1.68555982  71.52452196 -535.421086679206
1.11190450 1.58357621 100.94661736 -535.454961953136
0.99487364 1.64625581  69.56045464 -535.432795476965
0.94038455 1.93281265 120.55978409 -535.446617841096
1.43932486 1.67162800 114.55554393 -535.393568997409
1.08854042 1.82017696  96.66078901 -535.460197479966
0.85594739 1.73780630 103.36542879 -535.460908538786
0.86817477 1.78156383 118.95965132 -535.453247133681
1.29085200 1.69623090 110.78145001 -535.424950262561
1.10605972 1.75954218 101.80081412 -535.461172451563
0.89586488 1.68885396  89.38813133 -535.465136040774
0.94389381 1.67168745 103.55385572 -535.475780130477
1.04168721 1.72114552 106.23751084 -535.470782970933
0.96847463 1.64761542 134.28361453 -535.452931226439
1.40399047 1.79371317 105.10273366 -535.399243368483
1.19734243 1.72327780  96.05129828 -535.444898251890
0.95334204 1.57112946 126.40148766 -535.458877332302
1.02054139 1.52233825 114.08559120 -535.456865299535
1.01389841 1.78965518  85.09118788 -535.464926137391
1.39566928 1.78652004 100.55314406 -535.401986255622
1.23496143 1.54418513 100.71220026 -535.425064090041
1.04419766 1.69694704  93.86190124 -535.469176062963
0.97052562 1.90547669 100.98679862 -535.462516079275
1.24713320 1.64488036  92.75889481 -535.431008900878
0.96249047 2.23422139 107.43114363 -535.423146413962
1.22945769 1.60618505 101.96043702 -535.435564612068
0.81986594 1.80278478 111.91384454 -535.439750062838
0.92495854 1.68320261  65.16684443 -535.423172404381
0.93307661 1.77153855 113.12179191 -535.468553701026
0.96052609 1.81258159  72.53425603 -535.450441742235
0.98557439 1.67015287 125.70680406 -535.462786048253
1.08327736 1.89695225  97.77603639 -535.454469638495
0.97871692 1.84290486 114.39438612 -535.462443198930
1.12544877 1.82753628  98.26917199 -535.453851164774
1.14748151 1.69824192  65.28824075 -535.416002885658
0.91434777 1.57723896  95.05347530 -535.462543879211
0.77534065 1.71199535  70.35294246 -535.386086879101
1.00367941 1.63995078 116.46650615 -535.469826363289
0.98013757 1.74549992  79.24313203 -535.460342307640
1.13781655 1.82204812 107.25493794 -535.450288673097
1.01960360 1.53907518  84.77713334 -535.441499440931
0.97324766 2.12387932  92.98497452 -535.438884334831
0.89409203 1.72809412  94.01991969 -535.468317934346
1.21776278 1.68243258  85.70381693 -535.433432003854
0.93022659 1.60265526 123.90201089 -535.462838309088
1.00375489 1.66793038  65.23109128 -535.424445361668
1.23404957 1.66971227  84.96934483 -535.428640058281
1.41977991 1.67015840 118.28790218 -535.395009218247
0.79915684 1.72447450 102.57610345 -535.437381830025
1.14979298 1.63673012 115.00021865 -535.450588295333
0.96396346 1.78235415  89.47995927 -535.470054509014
0.93274850 1.79190807  95.32895077 -535.470930235415
0.97730783 1.98572440  89.58444090 -535.453762061702
0.73062297 1.68965095  97.05175133 -535.382676882522
1.09622617 1.67161247  68.85385931 -535.427166029165
0.99450103 1.89374871  96.19896314 -535.463514305702
1.19443721 1.76127599 107.93222336 -535.443554641822
1.36590275 1.68642815  63.58400481 -535.378008915470
1.06169368 1.52966182 113.13364464 -535.454037187476
1.02884308 1.82221736  99.63289928 -535.467400232099
0.95519126 1.93464006  78.37734743 -535.452151817835
1.19578899 1.68153495 108.21093779 -535.445487891134
0.95501915 1.72259061  70.57155002 -535.443713685774
0.97588361 1.68088314 144.90151404 -535.436378349410
0.94003310 1.66531112  56.22186236 -535.389233128685
1.27844880 1.70120896 135.98683292 -535.402802638053
1.04836230 1.84057791  97.59854729 -535.463976318178
0.96891078 1.80994539  94.36773884 -535.470737213092
1.14184952 1.68518836  88.87784761 -535.450945462680
1.27869078 1.46891889 102.78908333 -535.396852663239
0.98262701 1.47756524  86.28147238 -535.425130440162
1.28690700 1.85912549 102.06736653 -535.419057739649
0.90817209 1.64716272  55.99435982 -535.378781990368
1.49164789 1.86071077 103.40661912 -535.377134016611
1.14902386 1.58749219 103.34624283 -535.449571745432
0.98440035 1.72040012  68.93763319 -535.440393781903
0.96566596 1.41661072  94.03275088 -535.408926386935
0.86548976 1.65719983 139.67124016 -535.434610287117
0.95220466 1.77876348  95.56424625 -535.472653165718
0.73954732 1.74896179  95.87375812 -535.390081349262
1.11335351 1.67622802 113.47229716 -535.458504874207
0.80778455 1.62978352 101.71408676 -535.441161149778
1.40830703 1.73391682 105.55843986 -535.401458045775
1.12376761 1.74738128 100.47810242 -535.458774166456
0.97675960 1.77481323  83.06787627 -535.464981077611
0.94541534 2.22120994  84.52600755 -535.427297472420
0.97146547 1.95366850  78.63045300 -535.451144873156
1.18294664 1.68045096  81.11644963 -535.434946527019
1.10077293 1.74667313 102.15404195 -535.462547111959
0.93210016 1.65533028  95.50959562 -535.472406579378
0.95826822 1.87913512 133.30917711 -535.437782311650
0.94353616 2.27839388  84.99361926 -535.421813362856
0.97274987 1.89198440  68.79440728 -535.443063894990
0.89328390 1.63818691 119.15004545 -535.464058536521
1.07685979 1.45548200 100.10406636 -535.426502169780
0.95277436 1.71988561 130.35497713 -535.455761310586
0.98535586 1.66675534 123.85475401 -535.464786825774
0.93879695 1.69698705 136.36490691 -535.448255614379
1.01559335 1.75181774  94.26976962 -535.471562802126
1.00442671 1.78885727  80.96649171 -535.461533245457
1.08040481 1.56645734 101.25534473 -535.457471217928
0.94331591 1.74282477  73.91911183 -535.450986901644
0.99880366 1.74994094  82.77364967 -535.464182946722
1.12465577 1.66641438  85.48176378 -535.449611702866
1.06882203 1.87422898 103.06199832 -535.457805092141
0.96306363 1.63522434 116.36872405 -535.471183853836
0.95985852 1.66848967  68.88999560 -535.434140901777
1.19900271 1.62939170 108.71419262 -535.443357988598
0.93514039 1.61654653 100.66251497 -535.472270466480
0.97344639 1.86080277 109.64742494 -535.463837176934
1.08156903 1.84391462 106.94811811 -535.457574909300
0.91506764 1.56525999  77.16091082 -535.431314235841
0.76289207 2.14385670 102.55778798 -535.369059212194
0.97132268 2.11355709 121.23587289 -535.426449196068
0.89851713 1.80515746  92.47239114 -535.465326223585
1.22395162 1.69337075  85.65607639 -535.432648040578
0.94748972 1.65229383  75.87297572 -535.447714182558
0.99094119 1.83426412  69.23326295 -535.444774733179
1.05578365 1.47685906 105.89981529 -535.440715452648
0.90169332 1.64140391  65.53156715 -535.413552200313
1.42138535 1.67236174 115.05970682 -535.396707541912
0.95362000 1.79925711 101.48082021 -535.471873219319
1.01306802 1.80429803  87.63664592 -535.466300495324
0.77769820 1.56516962 104.88278406 -535.417425327043
0.82089090 1.69854155  76.36159848 -535.424756374510
0.94566918 1.98102280  94.47302615 -535.454379044382
1.00414235 1.66169326 143.42495352 -535.437880709633
1.15392764 1.69033473 102.88277970 -535.454413131772
1.17849812 1.71754434  98.44986717 -535.449244924675
0.74107641 1.65509924  87.76418212 -535.384669014956
1.38356186 1.72610810 109.77612943 -535.405511966515
1.46006368 1.70224478 124.62325630 -535.381674728993
0.79975899 1.69021714 105.64599988 -535.438336224043
1.00850959 1.82274474 110.11996590 -535.465796480130
0.92396317 2.22108598  94.27630084 -535.426039856272
0.71757648 1.67260110  76.62399793 -535.342856161937
0.94566425 1.65551765 140.11816585 -535.444446879384
1.08206470 1.85318995  99.79390081 -535.458533634653
1.10142073 1.73009324 101.85872133 -535.463020386248
0.97737667 1.95166281 120.65286216 -535.445104270070
0.95403153 1.92949462  55.24656952 -535.414849377642
1.18190166 1.64076197  95.39861665 -535.445479494881
1.02938005 1.71788838  86.53822379 -535.465635648729
1.14033294 1.66520446 101.89092581 -535.456501221994
1.05236135 1.75814232  86.17100846 -535.462980043199
0.96936874 1.62720211  68.96945642 -535.427691218635
1.09748395 2.06729643 101.16613737 -535.433092908658
0.96728236 2.02295300  90.71531729 -535.450008922325
0.95628374 1.81592480 103.64836344 -535.470291196659
0.93293781 1.62432382 142.18805067 -535.441070462562
1.02088894 1.50572315 104.07324513 -535.452603638776
0.77489912 1.70418800  70.94949305 -535.386521330135
0.93449355 1.46380161  86.77882305 -535.419177300052
1.20163596 1.68672628  99.18644059 -535.444800932262
1.01510808 1.60880598  72.26333985 -535.431999632896
0.96107903 1.70061761 114.45650623 -535.472354841207
0.77372017 1.70917524  93.73374317 -535.418961946445
1.07665967 1.77185835 115.48429812 -535.459107229654
1.10485749 1.68188016  61.12010708 -535.408903694943
1.40533011 1.62996044 109.65727792 -535.401158333596
1.50704248 1.67578414  90.04921084 -535.378521690682
1.06214575 1.77147436 102.93725190 -535.466811128136
0.97122715 1.81088016 100.54276017 -535.471243435357
0.98735615 1.50948718  99.00897094 -535.452981476952
0.82017490 1.88767931 108.14742696 -535.433299050603
1.17248089 1.76736780 103.61478993 -535.448717993467
0.92896562 1.57318896  70.24715230 -535.415952049586
0.98812359 1.51240338 104.70748755 -535.456783864401
1.00767092 1.86090834 119.78527544 -535.454758619892
1.02052929 1.69790609 136.67272934 -535.445576698816
0.89664889 1.66543639  95.64742402 -535.468946133734
1.12693773 1.58998558  99.40819336 -535.452647722878
0.96089384 1.70206730 105.59650635 -535.475947607868
0.96439159 2.00112186 103.81295115 -535.450899311824
0.84503874 2.00819259 105.54455722 -535.430378397960
1.48811548 1.65600242  97.82867479 -535.385669559731
1.05437433 1.68345283  97.92948642 -535.469446488890
1.04948084 2.07292709 107.83643850 -535.435980295149
0.82280969 1.65619762  74.33948487 -535.417016735776
1.15173867 1.69662375  95.80542968 -535.453596820420
0.86647903 1.75196283 121.34589157 -535.452889412459
0.67647433 1.72901471  89.67095834 -535.305985185718
1.04948938 1.66039188  99.32839011 -535.469792628081
0.99317752 1.75027150 102.35189200 -535.474180305667
1.00119359 1.79931818  76.84216220 -535.456485609426
1.19175136 1.81225504 100.67322145 -535.442559272570
1.00298692 1.62902926  70.44903954 -535.431871154692
1.37096420 1.63558685 101.60108722 -535.408517171166
0.96765006 1.75907907  83.18545014 -535.465338830587
0.97960550 2.15404860 116.66315128 -535.425888863694
1.20469328 1.65254848 101.77145580 -535.443692518065
0.94536991 1.83620636 138.43092068 -535.434233385243
0.99616055 1.67493478 128.18932203 -535.459371323856
1.08201793 1.69466226 115.43451277 -535.461990734965
1.05278139 1.68511956 125.74300122 -535.456821501171
0.92631226 1.82531662 115.68562980 -535.461625753850
1.28968322 1.62338241 107.57399429 -535.424645860433
0.74303788 1.72035121  79.56821889 -535.378327682658
0.97979674 1.82674875  93.55479505 -535.469251862050
1.45903045 1.69262610 115.03846865 -535.389367316114
1.33294974 1.69185746 132.82749678 -535.396641041286
0.86379107 1.72467885 110.87896809 -535.461543586872
0.95998075 1.75107782  93.54594833 -535.473224693245
0.70280624 1.70313829  81.72934858 -535.335533667398
1.13651214 1.79591964 109.83660251 -535.451380335907
0.92493982 1.91226875 103.22080335 -535.459338715875
1.31045316 1.92681482 104.75632010 -535.406784875007
1.44903326 1.70454982 101.77794680 -535.394427842320
1.11725315 1.88480472 103.73738208 -535.449346507679
1.09133052 1.67695603  70.59681878 -535.432094747350
0.96999938 1.61770377 110.50484839 -535.473101503317
1.00478071 1.87417662  90.66520365 -535.463720950723
0.97314078 1.66339734 106.48890049 -535.475735433489
0.97032101 1.83249968 134.53114581 -535.440915637074
0.93692285 1.85084278 122.88667832 -535.453046428313
0.99058081 1.47067464  91.80972080 -535.431493295011
1.01485965 1.63150709  81.36078366 -535.454253154332
0.79358623 1.88904087 100.43067575 -535.421526195692
1.25019514 1.70225374 106.54728157 -535.434707270368
1.00095782 1.61234273 124.66189469 -535.462232157943
0.85664664 1.64286217 130.12809210 -535.445043581925
0.97209337 1.99176184  88.57801970 -535.452922783695
0.86314758 1.74952374 116.56741312 -535.456375957774
0.88879255 1.63113975 119.95771959 -535.462498113843
1.19891271 1.69712345 126.17720509 -535.431492109160
0.94175730 1.90661616 135.01475727 -535.431783533605
0.89168118 1.71053358  91.96260334 -535.466823203767
0.97609062 1.58885122  86.63189192 -535.457532697608
0.94799125 1.91375558  73.89121016 -535.448546710860
1.14741503 1.62553838 114.59388925 -535.450788975779
0.96992462 1.97087514 125.49070465 -535.437816125364
1.26238661 1.70803190 113.72008903 -535.429122650076
0.86992111 1.74984500 117.18788122 -535.457618912194
0.98882038 1.70637129  74.76435516 -535.451277623091
1.00025679 1.54451838 134.85033995 -535.444914048326
0.99529615 1.88549712 121.94304795 -535.450656970206
0.97101797 1.72364346  97.79028674 -535.475320256605
1.09215628 2.06565121 103.84020004 -535.433164681129
1.07909723 1.90894639 103.65650206 -535.452737634239
1.00403125 1.56651777 116.96487190 -535.464221168983
0.98848447 1.72370167 108.08409952 -535.474242574996
1.02907604 1.71508542 104.24649824 -535.472604477055
1.14933644 1.69255583 132.26391410 -535.433489965219
0.82356408 2.17323471 100.74260224 -535.404009080672
0.82773641 1.77491067  91.76884376 -535.446669591486
1.45078284 1.63160213  95.79509242 -535.390417674161
0.78045051 1.92967857 104.42294048 -535.407430059423
0.95198128 1.78594896 109.34719026 -535.470497565462
0.88434172 1.67399781  97.05993121 -535.467686735583
0.92086934 1.80132438 120.14948398 -535.459431287807
1.01665825 1.74009415 112.14903372 -535.469951286193
0.96084665 1.64727343 104.75343795 -535.475519724549
1.13151873 1.68572759 124.57694380 -535.446152734670
1.00155713 1.74853954  82.97594269 -535.464267099204
1.01625605 1.54219467 103.41479814 -535.461334089233
0.87127523 1.83790434 110.06466500 -535.455347629503
1.08818948 1.66514557  85.40870767 -535.455152136289
0.96284864 1.90206491 128.38348122 -535.441978861217
0.98754520 1.84822514  92.10035139 -535.467038063379
1.10956616 1.55015395 101.44633742 -535.450178017467
0.68509041 1.61953944  92.76641198 -535.318487584544
1.11901154 1.54023627 104.36039973 -535.447624924087
0.98200380 1.53388755 134.84359096 -535.444445977609
0.85430119 1.80917607 113.93215521 -535.450954795580
1.14379258 1.55767067  96.80340410 -535.443105834676
0.78438550 1.70355859 125.67252497 -535.415632537960
1.10368456 1.72467745  94.32207671 -535.461344583191
1.26452488 1.70590914  87.64418067 -535.426450278077
0.89547327 1.63877789 116.96663584 -535.465982656706
1.01399488 1.77988908  77.91799695 -535.457377139162
0.96513671 1.43368246 113.69065463 -535.431666566524
0.98805854 1.54827099 112.62929486 -535.464351245461
0.83677067 1.70403749  75.99339003 -535.431136824899
0.95012498 1.90705700  94.71472182 -535.462379421892
0.95195352 1.69098379 108.42905343 -535.475285937238
1.00358453 1.95557797  92.80836248 -535.456571209115
0.96293917 1.89666971  92.85441390 -535.463396921877
1.15615289 1.73420624 110.81081111 -535.450976558066
1.06672161 1.67078983  88.75145088 -535.461901900183
0.98932039 1.92326387  84.38579911 -535.457403375260
1.19192370 1.69731564  88.24460192 -535.441446264438
1.06370236 2.06801763 107.47188052 -535.435094822311
1.06772917 1.78713364 102.86152102 -535.465153622379
0.96405653 1.84600340  58.92936145 -535.422677440072
1.05692302 1.69790408 100.09382263 -535.469728199028
0.90492438 1.61669900 104.82630181 -535.470204740563
1.35679518 1.71176894 121.30420936 -535.404051950124
1.34352344 1.62260290 107.19249454 -535.413556289718
1.07110142 1.63695590 118.43718120 -535.461236357341
1.09037971 1.84466475 100.41610011 -535.457989724859
1.40645664 1.79963558 106.10842459 -535.398072511408
1.00270328 1.67536309 105.17065852 -535.474872355500
0.84719853 1.60711337  88.66641162 -535.445853630257
0.96925853 1.81604126 100.51513369 -535.470866080060
1.18276075 1.68672635  87.49725447 -535.442211610255
1.09138392 1.68740519  59.37529604 -535.405931445670
1.08880466 1.72010258  92.93271761 -535.463023173657
0.99874898 1.56198973 100.59386780 -535.465116662188
1.06514443 1.59320239 101.39628737 -535.463352435775
1.11498040 1.70755446  59.38088520 -535.406830921260
1.14435065 1.70018989  79.18991635 -535.440619576258
1.09725080 1.78206979 105.85658382 -535.460517956533
1.12669948 1.68253807 116.58268992 -535.454204020287
0.85369340 1.69281720 103.20674435 -535.461428001264
0.79025756 1.64678439 100.36872655 -535.431794607291
1.09018555 1.81349089 103.49513896 -535.460004167657
0.82683537 2.00736085  98.71897468 -535.425425984992
0.85678106 1.76331866  96.37061941 -535.459427765354
1.16580691 1.56974835 109.56321341 -535.444214654957
0.97945654 1.87164602 127.95659292 -535.445718473906
0.97846722 1.95658448 137.33202143 -535.423733102875
1.17883718 1.69004488  87.69144719 -535.443271615116
1.09181259 1.69802695 111.82288975 -535.462599137566
0.91996157 1.62946908  74.96076321 -535.440168466831
1.14554771 1.71055205 105.26061030 -535.455551920263
1.13402707 1.75174372  99.15658072 -535.456763329880
0.93787172 1.89713862 127.56592198 -535.442658125225
0.93193823 1.58989430 134.33011091 -535.450628248351
0.84012321 1.69493831  70.79866413 -535.420217614933
1.46218761 1.73965755 106.66705650 -535.390487442570
0.96775296 1.87283496  73.08168677 -535.450029421098
0.95010681 1.42112080  88.73861897 -535.401779312481
1.19998437 1.78683856 103.86080615 -535.442149733906
1.27731881 1.81255139 103.28267682 -535.424607007625
0.91799108 1.46724676  91.26485466 -535.427432177167
0.71144523 1.76409199  96.47663394 -535.358451229300
0.91101461 1.90402172  94.31013260 -535.459509756195
1.21527469 1.67178989  68.39506152 -535.408600347863
0.84896832 1.63986810  85.09082953 -535.445482076469
0.95017931 1.53879238 113.48188860 -535.462994447588
0.97294415 1.71569905  77.51474556 -535.456826434835
0.98672344 1.79293558  81.82593248 -535.463103164013
1.06148491 1.75019864 107.04984082 -535.467040524460
1.05950204 1.62794190 121.23229519 -535.460243000351
0.87576480 1.62585487 111.70022849 -535.464530970640
0.86643287 1.78237058  93.34949495 -535.460202842210
0.90919675 1.74281503 101.27032227 -535.471860324579
0.98369313 1.55340573 115.00940345 -535.464497865889
0.97139374 1.93274528 128.94833748 -535.437914273701
0.95180224 1.64853650 138.89841567 -535.446462347314
0.89672567 1.83498700 107.19047698 -535.462243244183
0.98083238 1.93739409  84.66755785 -535.456548402818
1.20639749 1.52523329 100.70303490 -535.426677890572
1.12431230 1.88391117 101.47522845 -535.448832538407
1.01873845 1.95155775 108.26068551 -535.452690291904
1.04774694 1.63223604  98.61468268 -535.468236398962
0.95831321 1.80272992  90.76918397 -535.469740939858
0.98951387 1.64823057 102.17952739 -535.474848186674
0.95306469 1.79529921  86.34278107 -535.467176295448
1.12450646 1.70263636 100.58450371 -535.459602463480
0.97135025 1.57508404  91.17372644 -535.460955781770
1.34628252 1.74381461  96.15311825 -535.413572467004
1.05291313 1.67262904  74.11399216 -535.442946392095
0.91715728 1.70105476 101.30268768 -535.473846198787
1.07147174 1.62791573 110.87250015 -535.465023488677
0.86290229 1.74383293 110.93011570 -535.460286757426
0.84909840 1.72752176  69.44410715 -535.423092945041
0.96415448 1.78971079  64.98235355 -535.435289457999
0.99359349 1.85215569  99.95319666 -535.467308297769
0.98442021 1.87680378 119.19829659 -535.454726493114
0.97108585 2.10150330  97.01456021 -535.441029650577
1.00700169 1.76763923  90.61341241 -535.469956424578
0.91611172 1.75929767 115.52116472 -535.466281083175
1.05264730 1.81744839  98.69007563 -535.465281414528
1.10408467 2.02726360 103.93770750 -535.435759121571
0.82295849 1.66531332  74.41999677 -535.418421392634
0.95842506 1.90798163 103.10704186 -535.461638031445
1.44826935 1.68597677 119.47181012 -535.388621448634
1.11991535 1.63301569  95.20788473 -535.456162482633
0.81910943 1.62533186 117.33817041 -535.442971212154
1.16007634 1.70300443 126.80012540 -535.438033381167
0.95700032 1.99601726  83.12048381 -535.450189363907
0.75506333 1.71526661  86.16880887 -535.397968178841
0.99214402 1.64995457 143.39594501 -535.438905363371
1.13352233 1.89413355 102.92592599 -535.445894579866
0.95596486 1.54089951  71.13909091 -535.410693753840
0.91819825 1.51818924  88.00846498 -535.440622052387
1.02742895 2.21973041 108.92463044 -535.421558379276
0.79534376 1.70148348 112.99278357 -535.433018440315
0.98241393 1.80377314  74.81220683 -535.454153122009
1.27090985 1.66110103 116.47177487 -535.426109146641
0.94169217 1.59213473 133.38519198 -535.452396394328
0.90073321 1.93728357 102.43606668 -535.453791991196
1.05986951 1.83381499  97.71984274 -535.463158310478
1.36625325 1.56161123  99.08134861 -535.400688883370
0.83676364 1.79136488  97.91728509 -535.451346214098
0.96032517 1.70460245  59.49543426 -535.411378077743
1.19394921 1.74901752 111.21839742 -535.442814164164
1.32538841 1.59659062 103.96022280 -535.415161795153
1.29239553 2.09864505 103.55884761 -535.391956899840
1.10648431 1.60460257 101.54647812 -535.458491504252
1.15415054 2.22681219 101.55451557 -535.406273604108
1.02543039 1.63974540 127.25566865 -535.458358786462
0.91441287 2.01124804 107.24810585 -535.445061260727
1.04265142 1.68468263 113.09165651 -535.468685644126
0.90752238 1.69733857 128.72012953 -535.455735196852
1.08036160 1.56097745 105.87063011 -535.457688084705
0.97700095 1.71210167  72.01472201 -535.446441249346
1.28532593 1.69821609 126.85272460 -535.413319089439
1.21478674 1.83481542 102.32030820 -535.436001825657
0.90666212 1.68964074 118.62226856 -535.466197201950
0.87139545 1.69285292  56.60043418 -535.383943887501
0.93983532 1.68537927 143.89140195 -535.437556939105
0.87844633 1.92844317  95.73854881 -535.451393856626
1.03781433 1.72800689  93.41865600 -535.469692886344
0.88255796 2.22318545 104.65098314 -535.416702806492
1.29506022 1.61267891 106.65216245 -535.422904442765
1.30063979 1.73926870  96.68982507 -535.423400957985
1.29474455 1.68906543  87.68594537 -535.419657598636
1.42738377 1.69678460 116.09229184 -535.394610842144
1.03103162 1.66668264  89.53679357 -535.466402425488
0.92688305 1.64589531 112.83094602 -535.472130639408
0.97462432 1.78046716  68.30328919 -535.442419932070
1.14030710 1.63157251  99.17026663 -535.454292761837
0.94336309 1.52936156 117.52932101 -535.459457825865
1.15878067 1.95175676 103.38717139 -535.435164427080
0.99404410 1.66106222  64.32989696 -535.420763702146
1.01350961 1.78461679 109.05513479 -535.469054114441
0.90961170 1.73093073  82.98943894 -535.461349031518
1.19183063 1.74331664 106.84732962 -535.445318965796
0.86303660 1.81070473  94.73736299 -535.458039818094
1.23376848 1.57581552 108.44174486 -535.431701376243
0.97799458 1.55381633 125.68088893 -535.457350702550
1.02329777 1.80484351  88.31096574 -535.465917431566
0.95226615 1.56359687 117.98897078 -535.464748205438
0.88633591 1.68611939  72.15954600 -535.435893076361
1.30422224 2.10667731 102.40894257 -535.388994493515
0.98762586 1.62726316 120.98313532 -535.466930922766
0.95775728 1.84146063 102.82770559 -535.468316229323
0.94408794 1.87973969 116.12160149 -535.456844420004
0.92474176 1.60923923 118.86375629 -535.466962107759
1.12380276 1.61928432 105.56774804 -535.457285430103
0.96251256 1.52543411  98.34835566 -535.457210175237
0.89212149 1.65911828 132.40809882 -535.450038698254
1.15892580 1.68484934 110.78765149 -535.451688435146
1.06557890 1.96119109 101.36895184 -535.449534268558
1.01122168 1.77393651 130.08132882 -535.450745827279
1.09178301 1.85931616 104.22199086 -535.455661534394
0.72422210 1.73499101  85.94866164 -535.367540430466
1.14108870 1.61777182 100.10761302 -535.453360589606
0.89865684 1.68906537  69.26855045 -535.431507453899
0.84312214 1.62837974  98.61945466 -535.455097356104
0.93387641 2.00829323 119.28126993 -535.438643093634
0.99080189 1.76315800  73.41267672 -535.451430781158
1.00865138 1.99251315 110.59193828 -535.447285234625
0.93886778 1.72457423  89.47286615 -535.470451431736
0.81214457 1.56257177 103.95064216 -535.436900710406
0.91190468 1.78792377 108.01537259 -535.468082412548
1.04539243 1.59873201 109.50879861 -535.466693530766
1.37067588 1.70753275  94.26923326 -535.408308262083
0.97889255 1.89267263 133.27241082 -535.436394023711
0.92537237 1.72808125  98.36802199 -535.473748447154
1.20264728 1.62789452 105.89139137 -535.442967936863
1.05117906 1.63344445 124.24202181 -535.458639714634
0.91402242 1.67850760 118.91332403 -535.467085092273
1.00913288 1.87980501 105.53050874 -535.462446382129
1.02933223 1.68425858 106.75420209 -535.472520858433
0.91048777 1.53744148  86.69942275 -535.443087083948
1.13232874 1.75549313  96.47373082 -535.456527667406
0.97979749 2.16189828 123.94138727 -535.419106962607
0.67472289 1.72964748 115.68961151 -535.303214997305
0.95219865 2.22025427 125.92399904 -535.411801278508
0.98434977 1.79568914 112.66291635 -535.467759722952
0.94523724 2.13808157  89.00739354 -535.436541178287
0.95111652 1.71685547  92.95074691 -535.473293176899
1.00425040 2.08127090 100.97223998 -535.441531370595
1.04471725 1.79813098 107.35917145 -535.465902027744
0.87497160 1.67197349 126.67058482 -535.453331045500
1.19828394 1.70299101 119.21104616 -535.438333588717
0.99886921 1.93615891  99.49384803 -535.458738129255
0.94535043 2.20795344  99.40301538 -535.428116095453
1.22477651 1.71016980 118.51347516 -535.433396276150
1.08162213 1.76027700 114.55265113 -535.459840685485
1.08283661 1.86155548  98.29390375 -535.457789871608
1.12571789 1.71352097 103.58209824 -535.459259888026
0.90281423 1.70895065  59.08334929 -535.403789918326
1.01517751 1.60162974 111.60908432 -535.469366406712
1.04175802 1.66228651  67.43221386 -535.427772153805
0.96864354 1.71446126 130.24411017 -535.456285057125
0.93785896 2.02366564 102.89164506 -535.447607089462
1.13427741 1.77088637  98.92844655 -535.455879687846
1.11197309 1.69451855  70.54091098 -535.431116137413
0.98327293 1.64927645  93.87050706 -535.471839441648
1.10588396 1.66012286 102.75534720 -535.462336898309
0.98694530 2.17104572 101.64490962 -535.431891575355
0.93211956 1.84589655  85.11135941 -535.462575201676
0.94041230 1.68982108 131.10242088 -535.455811535951
1.47684542 1.70078787 116.98121452 -535.384753180981
0.97197470 2.08838014 122.70222254 -535.427756916191
0.92591654 1.57057244 118.79098740 -535.463899500481
0.86872037 1.50070579 105.20046684 -535.444253462393
1.06171537 1.65116725 137.26629573 -535.441283258499
1.38210545 1.64473991  93.48826407 -535.403487264965
0.92257576 1.85591869  82.72032449 -535.459230411316
1.00083759 1.78747398  82.68736071 -535.463561987997
1.00177332 1.61483162 123.32517874 -535.463578571578
0.98625758 1.75296124 114.04637101 -535.469835367594
0.94354507 1.89358259 112.89006702 -535.457787405346
0.97200685 1.85559290  92.36863354 -535.466860513611
1.02052323 1.60476730  72.83409541 -535.432264354249
0.87468056 2.06308866 105.35126217 -535.432620462109
0.96328436 1.58566365 134.77097686 -535.450527196686
0.87649527 1.76959810 104.70338844 -535.464363844198
1.08086211 1.74631306  98.67562973 -535.465481327510
1.13779164 1.71157978 142.18809283 -535.420023727355
1.14690759 1.67297593  95.73112395 -535.453922562481
0.85264197 1.77711355 113.76817602 -535.453313292827
0.83461964 1.53248026  94.71550348 -535.434536054408
0.93328778 1.73776351 148.79604752 -535.425989521870
0.89364505 1.79500768  90.96776570 -535.464395525647
1.06943874 1.42326207 101.67949568 -535.413858602632
1.01407004 1.49610538  91.76459362 -535.439616023322
0.87512818 1.72563298 123.08250515 -535.454971391718
1.05749363 1.61609744 118.92051925 -535.461850123939
1.06456286 1.69189689 135.78012746 -535.442202663117
0.87910898 1.68613527 118.39153601 -535.461809233319
0.94955527 2.04002385 124.93603978 -535.430288797805
1.15372936 1.57802003  98.10337263 -535.445537179382
0.91549377 1.65800809 136.88196209 -535.447140019679
1.21900819 1.67151060  86.92241624 -535.433750192171
0.80498966 1.69860042  75.22484872 -535.414547692509
1.18656920 1.76335386  96.23507351 -535.446056538512
0.98160111 1.69597872  66.84995393 -535.432880179051
0.95639631 1.68987233  95.93719148 -535.474737568107
0.83683463 1.76031689 114.55877853 -535.448593361064
0.97778958 1.94210871  57.08657007 -535.420086434740
0.97611193 1.82369116  76.95897839 -535.456822960241
0.95334118 2.10395875  73.42598112 -535.433804302367
1.05608983 1.85691250  94.20007652 -535.461406978736
0.71533949 1.68631332  78.20150047 -535.344481566331
1.11756131 1.74048992 102.34115315 -535.460025848449
0.98665265 1.67782478 117.79669767 -535.470025549028
0.96628652 2.16851257  61.33714424 -535.417803265174
0.78165153 1.64667769  84.90787746 -535.413084996948
0.89055185 1.94627431 105.08266352 -535.450092291709
1.46374777 1.72689452  98.61715468 -535.390830043221
1.14760776 1.76249330 111.34940228 -535.450828117677
0.90432207 1.51933231 116.37920160 -535.454897675439
1.26392357 1.86272336 100.30754994 -535.423836341410
0.91467546 1.70324627 119.34636668 -535.466103370255
0.85502682 1.71675022  74.04086761 -535.434482698736
0.89854256 1.72275366  56.81623335 -535.396814577465
0.94794212 1.74084787 127.22533603 -535.458247820306
0.95514980 2.24649400 145.15425148 -535.391422164111
0.84581506 1.62536017 106.07516247 -535.457362221368
1.06300211 1.74720605 115.60002255 -535.462408560516
0.94639107 1.86659692 118.56108030 -535.456218236148
0.92883770 1.89405937  97.16415144 -535.462535819555
0.94851244 1.54473019  97.13043415 -535.460507976264
1.42214897 1.78574631 106.57168239 -535.395760096163
0.96509453 1.51793361 114.44589876 -535.458671496141
0.77970497 1.61478844 103.73208484 -535.423926958142
0.99896217 1.59578419 124.87386826 -535.461203362651
0.85576882 1.49814751 112.16624032 -535.441036424126
1.30393001 1.68484463 129.02796832 -535.407369730685
0.90932852 1.72963148  73.72252637 -535.446659626938
0.98321250 1.91752299 116.64006211 -535.452582775255
0.95219717 1.75061435  99.83669123 -535.474663057576
1.18026992 1.72588178  91.86271946 -535.446501818814
0.96527864 1.58896469 139.71930904 -535.444077633183
0.96316227 1.91528675 108.76085246 -535.458518195290
1.21956179 1.66143310 111.57814030 -535.439332635579
1.08040611 1.72925138  89.31155014 -535.462027023741
1.10114160 1.66777644  88.58016661 -535.456644883027
0.78055639 1.74583998 111.09944965 -535.422474937892
0.87347024 1.99136611 101.47486691 -535.442328410399
1.03774359 1.70208103 111.15091682 -535.469924881039
1.03597351 1.70471853  93.84705280 -535.470124520796
1.15767149 1.50501712  99.64709871 -535.430129305811
1.01043494 2.14708684 102.34628634 -535.433260800887
0.98428212 1.55306814  72.10199050 -535.418207131102
0.93030134 1.62369747  73.41385077 -535.436538535244
0.93121136 1.71445071 113.11963933 -535.471635000364
1.37496155 1.68411448 110.71991304 -535.407814126641
0.92282713 1.64051872 138.08324897 -535.446317308591
1.14386315 1.65187582  93.57232721 -535.452314168042
1.16869235 1.81431703 104.58823270 -535.446151568303
1.10163119 1.80553301 110.35354336 -535.456209529364
0.95774332 1.73792412 100.76897627 -535.475312136455
1.24943240 1.83697504 104.10672862 -535.428308625673
0.95066922 1.57915652  99.54271457 -535.468220275811
1.14313481 1.70603484  72.11950003 -535.430336059939
1.25411086 1.64715471 111.38247700 -535.432027462461
1.01824842 1.75973830  99.19292266 -535.472162958288
1.03562659 1.60182289  93.90251100 -535.463805385430
1.36767871 1.56312963 104.09011416 -535.402500697926
1.18977631 1.84289182 107.36877954 -535.438726358763
1.00464491 1.49400314 115.30574566 -535.450975734445
1.35012159 1.67910929 122.47753702 -535.405147314402
0.73297700 1.73873497 115.17798224 -535.380228332649
0.94285033 1.65849844 133.21189499 -535.453979459213
1.05232276 1.41075630 111.04758158 -535.414265344191
0.95301278 1.77915316 116.36419403 -535.466544221026
0.97150783 1.55249134 100.90096538 -535.464581523041
0.99495553 1.63392147  93.05927637 -535.469647341450
0.95955816 2.07221474 105.28346741 -535.441843492133
0.91033771 1.72080154 104.52105342 -535.472580476442
1.17563996 1.69729926 136.41919742 -535.422582727685
0.79052813 1.94146937  99.70145863 -535.413905986751
1.33091416 1.70021853  71.76488801 -535.394991630324
0.99653796 1.79492483 115.77858142 -535.465099774617
0.78996241 1.77474107 105.26426992 -535.428832812657
1.21527498 1.81652150 107.07933590 -535.435985398966
1.05904381 1.71952520  64.14775423 -535.425379518684
0.77761065 1.70642766 132.13964525 -535.403189583675
0.98761676 1.89054078 132.70666607 -535.437198625394
0.88023741 1.75401504 109.38341200 -535.464607323423
1.03268964 1.69361612  83.32078321 -535.461057674501
1.16356056 1.69149322 113.18464742 -535.449559411852
1.02299114 1.73076510  73.93318300 -535.449600162106
0.95711830 1.70119352 124.14972714 -535.464031618326
1.12991729 1.57942938 102.08414506 -535.451681814800
0.94063322 1.95098513  79.92772036 -535.451490630395
1.04762733 1.72503358 126.99752300 -535.454442861072
0.96492083 1.73376559  91.53284771 -535.472572793144
1.02972360 1.91870345 110.55495950 -535.454161847222
1.20283013 1.50403723  99.79574010 -535.421320958547
0.75038368 1.67262655 115.29366264 -535.399723232604
0.95967195 1.81615295 121.21537313 -535.459074237878
1.00029671 1.69757088 127.09034026 -535.459779483971
0.96827791 1.67527327 138.73063039 -535.446156800795
0.92840388 1.70970803 141.98683689 -535.438552506175
0.89699595 1.90930470 113.05434695 -535.451038554775
0.92467413 1.71140410 137.82861453 -535.444462292351
0.88932002 1.86363093  92.72604176 -535.459494847734
0.99070687 1.81459173  76.40623654 -535.456047068257
0.96483168 1.68860969 107.20725858 -535.475786417597
1.01971691 1.82033620  92.18269276 -535.467186010203
0.98716689 1.53480703  74.47548060 -535.418924170276
1.06910143 1.69304258 102.94160171 -535.468316400162
0.86089739 1.69539218  69.56619811 -535.424148379282
0.91826030 1.67280547 114.24544666 -535.470850005007
0.97098424 1.89475922 115.07613946 -535.456591499596
0.91629203 2.01116891  92.59385652 -535.448553566819
0.87846358 1.73078748 105.53624253 -535.466677904639
1.00090993 1.63071103 100.85990891 -535.473041046112
1.02410682 1.71772366  93.25129842 -535.470974980369
0.94641058 1.81675713  63.11464969 -535.431063370568
1.27607863 2.15009353 103.71459100 -535.389659811429
1.03442097 1.64844175 112.65547237 -535.469572274915
1.07536080 1.73030936 103.48471172 -535.466793181886
0.97224824 2.12351885  70.39681610 -535.430105890129
0.97660438 1.56966830  78.55692560 -535.439034911044
0.96281612 1.73415758 104.61468710 -535.475232742438
1.11849115 1.72679682 121.74494839 -535.449860543729
0.85702732 2.03945543 104.10613990 -535.431147606157
0.98677044 1.69822900  86.14841695 -535.467412335098
0.99339396 1.70367565 124.56654274 -535.462763318078
0.99432438 1.70621792 108.25211097 -535.474437449505
1.06606886 1.78447573 102.69305569 -535.465567274810
0.97004442 2.07250246 117.89298779 -535.433824186420
0.95608335 1.44043775  82.83922256 -535.399584852385
0.98381818 1.78306458 108.03837294 -535.471196014679
0.98225699 1.99885156 121.63383637 -535.438637594028
0.89651812 1.69353257  77.38401634 -535.449294453641
1.20421541 1.66538317  91.22969662 -535.439967529643
0.96059713 1.78962115 130.98465249 -535.449915875710
1.13012924 1.71538538  86.15367829 -535.451526648775
1.03497341 1.64220561 105.54880210 -535.471272664827
0.88282687 1.81376966 111.77522207 -535.459255792840
0.96014995 1.66430487  81.64098616 -535.459776379978
0.93881673 1.56666818 112.33042964 -535.467248976129
0.86506668 1.66550207 111.83880680 -535.462810395739
0.71527766 1.69669415  98.05593901 -535.365773168728
1.07854593 1.70224887 119.36727279 -535.459260249463
0.97820971 1.65216536 107.98330228 -535.475096185086
0.94912589 1.56918108 109.74610520 -535.468514040827
1.43883438 1.66935299 111.37044605 -535.395078274747
0.98858299 1.73572036 101.59840756 -535.474985187288
1.05266434 1.61422242 108.06087173 -535.467362665213
0.99911501 2.06304850 110.36913891 -535.439683661555
1.08115550 1.82256000 102.84119637 -535.460756515232
0.68644959 1.70734472  79.69946105 -535.309314005391
1.18914644 1.75808944  95.66746596 -535.445611965643
0.97521815 1.44396535  98.26427579 -535.428570023174
0.80694414 1.70732655 111.50524605 -535.439979402062
0.99255251 1.44363443  88.95064303 -535.414259199890
0.99152322 1.73192022  83.58609328 -535.465264957251
0.98094529 1.60659845 119.55544387 -535.467360616826
1.14696415 1.52767965  97.27391721 -535.436389471033
0.87459062 1.64001929 126.73021037 -535.453452724780
0.97753253 2.21204370  94.98344109 -535.429157231211
0.97090900 1.56908280  75.70909093 -535.432275011112
1.21404792 1.65870999  89.40555582 -535.436170754165
1.06157966 1.58653248  90.27188219 -535.455199568256
0.95804699 1.43430685  74.72515253 -535.372430386893
1.34750013 1.63755573 108.87173769 -535.413212795504
0.95515685 1.86118987  91.86372376 -535.466112771993
0.80253363 1.73904090 113.15836644 -535.435174114258
1.00254234 1.64408587 107.02606257 -535.473915518236
0.88142927 1.98495039 107.28929246 -535.442657106105
0.98464747 1.89477397 117.38488509 -535.454430051403
1.21668275 1.65372632  88.24989474 -535.434265154941
0.86310978 1.83872052 101.59510212 -535.456154858625
1.19733288 2.06323759 103.67948036 -535.415180020970
1.34549706 1.60816552 107.74411507 -535.412105167704
0.94214417 1.73778784  97.83217153 -535.474479398370
1.14619977 1.66054678  80.47790719 -535.439139825372
0.98600623 1.73256490  70.76947939 -535.445220965173
0.97033735 1.68397336 119.64602672 -535.468856236603
0.96939675 1.71467200 126.06481987 -535.461343776549
0.89718440 1.61346245  79.62352536 -535.444363465617
0.85831121 1.89494752 104.20698617 -535.448475398425
1.47692154 1.53720344 100.19057012 -535.376150910103
0.73070654 1.73212020  85.56365884 -535.374177130895
0.94588373 1.97575900  89.94293103 -535.454385206951
1.00296952 1.70809469  80.81594469 -535.460612411252
0.93020458 1.71759471 113.13031724 -535.471435120364
1.44160826 1.92508403 102.55994809 -535.380718120657
0.96478624 1.93886357  93.00533362 -535.459291666434
0.84743824 1.57268646 106.20928462 -535.453005853910
0.88279923 1.71720377 109.78198088 -535.466805414614
1.20045485 1.68337291 141.98304076 -535.409669247603
0.95688146 1.74082865  93.38349805 -535.473364058090
0.96214119 1.73520080 135.65152784 -535.447648701579
0.93856714 1.76424439 133.29316345 -535.448211773630
0.87830273 1.80107747 114.46995367 -535.457623599788
0.80694889 1.68703020  71.32903016 -535.405685093070
0.74266235 1.73034435 111.08218974 -535.392757618004
0.93064632 1.79632806 142.00486987 -535.431673823943
0.71850033 1.71317710  97.38546086 -535.369139888423
1.32748781 1.74200503  97.88032280 -535.417917320275
1.02799607 1.70813411 145.81736759 -535.430147773757
0.79440832 1.81321234 105.76492412 -535.428287992159
1.02909553 1.79922858  93.04906530 -535.467946725371
1.01168209 2.08104054 103.68680335 -535.440205108378
0.97269690 1.78903564  97.83670552 -535.472660229025
1.04518489 1.71010979  71.57644829 -535.442147402615
0.89473482 1.84569350 100.41136530 -535.462704412886
1.01370048 1.76277437 112.07659341 -535.468922314499
0.92869646 2.06390353  98.80221498 -535.443303981688
0.95628190 1.70455338  85.39185845 -535.466985657916
0.96694035 2.13450152  70.93094211 -535.429599400814
0.97896014 1.54127146 120.87589430 -535.459474007262
0.87549386 1.82109284 109.87611023 -535.458067743657
0.94367471 1.68276737 148.17363817 -535.431139678538
1.09464366 1.71654922  96.53603777 -535.463612428983
0.90405928 1.51982564 104.82340985 -535.455640896779
0.94809579 2.08190407  75.00811737 -535.436708795180
0.67862685 1.57393936  96.67448047 -535.306268173578
1.45579146 1.65878262  91.56089939 -535.388456453638
1.05889124 1.77597916  93.30870755 -535.465964316792
0.93994990 1.76751394 115.42814738 -535.467645855629
0.98803951 1.51213934 145.11400351 -535.427176557989
0.96351617 1.49009461  86.69012879 -535.431068332959
1.08062804 1.69894510 146.25674435 -535.423338115546
0.69156221 1.47498474 102.98835072 -535.306729518072
1.16768957 1.63135053  98.71253331 -535.449031231508
1.01784447 1.88346318 100.45602409 -535.462840859460
1.12310459 1.91016068 104.25744318 -535.445621412446
1.06767501 1.66225028  94.17837917 -535.465404995518
1.06808742 1.64611720 129.25726275 -535.451105956566
0.98710567 1.53835967 119.35584444 -535.459689939545
0.93656839 1.91411666  87.06064730 -535.458859345526
1.06642397 1.53943137 105.74761790 -535.455813537434
0.78226842 1.69791596 110.89129180 -535.425999075943
0.97509614 1.84378764 131.26774297 -535.444339526207
0.94365711 1.70456395 127.25076320 -535.460087088943
0.94936814 1.90665615 132.65595179 -535.435482955516
1.08343258 1.58590963 100.01908533 -535.459389982474
0.98485215 2.17620269 106.73222126 -535.429401596257
0.98365771 1.71148791  81.83315049 -535.462861250978
0.90647210 1.67214963  94.02474987 -535.469696022755
1.15900064 1.44480342 104.09864461 -535.411295286091
1.03935190 1.62677337  93.14624140 -535.465578665546
1.02401835 1.58101670 122.79417581 -535.459962319096
1.08201512 1.60259385 109.45750537 -535.462201916214
0.95880074 1.51267584 108.90390257 -535.458215585155
0.82007206 1.91878202  99.23324547 -535.432564988745
0.96190142 1.84247461  75.79048318 -535.454660869952
1.06271761 1.95087894  98.66826687 -535.451563336107
0.89840688 1.93155093 106.80523175 -535.452423248763
0.93915345 1.77176846  74.01582640 -535.451712782788
1.04067540 1.81302321 101.27833532 -535.466797165179
0.92763494 1.73729155 135.93255996 -535.445789785487
1.04233379 2.18401679 107.70532604 -535.424469214029
0.96204569 1.61683122 126.96685948 -535.461388042657
1.28443291 1.77384739 104.26393964 -535.425440032343
0.97218387 1.59016437  81.51462659 -535.449465865689
1.02233682 1.75266599  93.73291654 -535.470787683309
0.91210121 1.66325285 117.58188670 -535.468050958990
1.11329380 1.70233816  91.99655364 -535.458549434800
0.95630030 1.63046764  91.56507131 -535.468751017033
1.01505788 1.95952542  93.50227457 -535.455504292918
0.96702476 1.72059684 133.82013643 -535.451165258449
1.03166076 1.63428023 106.21524799 -535.471179811883
0.88260714 1.66025080  74.95458334 -535.438471009842
1.03838091 1.98733881  96.41472996 -535.450515989565
0.97205082 1.71040123  71.99195307 -535.446241781919
1.11992688 1.44178696  98.96239128 -535.412850917783
0.79488465 1.69291977  90.66760781 -535.430533481290
0.98698173 1.74349356  89.64612839 -535.470885023686
0.99064534 1.89959640  91.54271783 -535.462442324649
1.16746744 1.60637441 107.40561385 -535.448165676673
0.98439640 1.62989820  90.80745330 -535.467772202007
0.97619240 1.76772715 109.81068395 -535.471632071086
1.20119890 1.92260320 101.25921518 -535.430730077739
0.95552891 1.63552324  95.05513294 -535.471866418276
1.07772918 1.70525315  67.60114746 -535.430264654064
1.20252222 1.78292282 103.18750032 -535.442014231378
0.90884263 1.65508531 121.52268285 -535.464474100292
1.10795069 2.15366664 105.88732276 -535.420070537005
0.98938830 1.61108922  93.53439604 -535.468007266952
1.04230264 1.78462120  91.16787594 -535.466589960747
0.68345377 1.88827205 103.01730935 -535.308269335854
0.97719294 1.66138776 106.75383811 -535.475572705661
1.20776286 1.69714956 119.51213693 -535.436350766921
1.34310772 1.67370902  89.12326919 -535.410050743366
0.94654078 1.52684659 119.51771846 -535.457986635095
1.28117152 1.63835837 111.84282600 -535.425961171311
1.27200693 1.65898983 101.80613122 -535.430083377502
0.83350734 1.64235792 109.68919637 -535.453085235173
1.26103022 1.72563761 104.13857502 -535.432412332532
0.93174938 1.51535150  92.52719521 -535.447559909092
1.11720100 1.56567942 108.12052863 -535.452592659366
0.95658245 1.57922369  74.93561239 -535.432582467368
0.91437741 1.71726786  58.26398799 -535.404122000717
0.78986658 1.72507142 108.96512487 -535.430595895173
0.97639674 2.05842020 111.86493650 -535.439928381845
0.84584608 1.74668239  91.38708846 -535.454344904386
0.97077446 1.84401664 134.03671536 -535.440474237020
0.96883061 1.49869291  80.79531017 -535.421984471856
1.08543088 1.64541187 130.16677693 -535.447499710369
1.01815887 1.55919847 120.67761392 -535.459785703003
0.94482568 1.64119986  96.90542492 -535.473019489191
0.95753524 2.04503066 120.40637196 -535.434532569977
0.89558005 1.58925578  86.75442993 -535.452363021726
0.91569603 1.55226827  83.36628847 -535.441568853509
1.01587490 1.64220610  59.20986510 -535.399810291764
1.07196268 1.66015841 114.90241732 -535.463967717092
1.07626833 1.92421028 103.71470079 -535.451486917786
0.86689550 1.83986736 100.22374524 -535.457232791689
1.18151395 1.67921639 112.08417052 -535.446788907552
1.10492028 1.92851420 105.84616145 -535.446009729074
0.74492799 1.67904618 118.84233223 -535.392160039895
0.96553896 1.74321603 113.90767196 -535.470894291095
0.91686539 2.14688598 110.40300134 -535.427805469676
1.00706772 1.78729955 105.07768126 -535.470794418656
0.95819484 1.83993529  94.08840727 -535.468462023986
0.89076684 1.69604355 109.06180768 -535.469202172540
0.75002145 1.70747346 121.67033394 -535.393201293090
1.18342310 1.60492802 104.07175135 -535.444994558489
1.11300055 1.79074612  96.32713241 -535.458184504866
0.99993394 1.78797962  92.61229263 -535.470499225969
0.90108560 1.72123152  91.30177549 -535.467937054123
0.89757750 1.63463735 101.33481862 -535.469813010370
1.22899751 1.72858164  89.06695442 -535.435091895667
1.29085880 1.43038699 100.10589324 -535.376536383200
0.97540579 1.93359590 119.86297738 -535.447966939544
0.89297920 1.71356231 113.74466837 -535.466813505477
1.25409091 1.78660329 102.19962631 -535.431381283014
1.23418303 1.67827306  71.42735681 -535.411026857421
0.95672705 1.58358090  72.12804273 -535.426282340223
1.17253039 1.69437858 132.43421139 -535.428895495989
0.93838882 1.71248252  74.92514930 -535.450972106521
1.16684445 1.67769524 119.12343119 -535.444980163043
1.32706816 1.68866019 139.38333900 -535.388542067329
0.98307283 1.89389482  90.93757805 -535.463021960378
1.03173064 1.66878075 106.22111247 -535.472285817375
1.03132364 1.61035357 103.46465556 -535.469510370312
1.08430838 1.59177637 109.72836979 -535.460797443841
1.19306910 1.70148794  63.41297618 -535.406162460183
1.08683799 1.67638396  93.47170556 -535.462900927615
0.96969205 1.57793758  80.32992127 -535.444668821038
1.00614146 1.73400790  80.37139053 -535.460694666902
0.94048011 1.67744806  69.14602232 -535.434922141056
0.80964821 1.68633376 105.07118868 -535.443712606171
1.37265765 1.67716712  91.97384981 -535.406104677987
1.31043368 1.62647472 103.19863766 -535.420631040008
0.90139235 1.89504392 104.29842223 -535.457989628455
0.97031203 1.98003738  83.77539954 -535.452236368390
0.92542624 1.63311415  56.47082360 -535.379924008897
1.26991130 1.70022746 124.77531488 -535.418660752990
1.04883123 1.92114746 101.57635011 -535.455831593372
0.91138650 1.96412085 112.43433878 -535.447187772085
1.04014817 1.77131402 117.34549562 -535.462180953956
0.98913845 1.71007940  81.11651620 -535.461691418722
1.30098092 1.65361405  92.58659915 -535.420251338499
0.95462404 2.03021302  73.44438379 -535.440110840577
0.80535552 1.68541854 124.20011830 -535.430276808184
0.83924357 1.79178281  99.39266338 -535.452368212911
1.03356372 1.90153617  95.18692071 -535.459966193307
0.98578843 1.52084953  75.68643421 -535.417360781180
1.01905340 1.50471367 119.22106787 -535.450822312843
1.11298098 1.70186857 109.18904172 -535.460306879781
0.95870671 1.75217774 133.16717723 -535.449956481114
1.18984317 1.70849167  99.28153787 -535.447236599633
1.06261360 1.68800521  91.19956290 -535.465152013584
0.99729336 1.94130767 109.49657852 -535.454494798235
1.08092502 2.01356349 104.46021187 -535.440524335169
0.99359483 2.16746636 100.51873817 -535.432412085191
1.31947640 1.49737297 101.00431474 -535.396814134726
1.00335007 2.12255592 104.91160268 -535.435437404168
0.73912297 2.04947144 104.69594424 -535.358133955687
0.96998964 1.75419952 148.69556942 -535.425536392089
0.82386793 1.71571464  77.03850655 -535.428427778184
1.04029045 1.61598773  92.61312772 -535.463946872136
1.52396084 1.72381756 109.23014197 -535.379170017347
0.88110247 2.08410518 102.52346751 -535.432723177448
0.85484967 1.75216917 102.54116610 -535.459966625315
1.05467296 1.63556287 100.69109915 -535.468278743222
0.99677098 1.82584980 113.83982426 -535.463838935776
0.77734731 1.77021533  98.89923450 -535.421245169855
1.12293288 1.71365725  71.94332988 -535.433672783753
1.39377023 1.57495608 101.92224472 -535.398444792873
1.01246152 1.71001512 102.54868898 -535.474242945244
1.04333587 1.62965425 105.76156443 -535.469717814346
1.30119297 1.66138375  90.29225649 -535.419042052441
0.95313926 1.72064964 103.90707915 -535.475657425241
0.92364488 1.81897367  77.26882094 -535.455073202648
1.03781136 1.49983513  99.52391021 -535.446751307928
1.07067775 1.65850585 100.83891150 -535.467357722162
0.95382653 1.54974511 118.62934179 -535.462502162833
0.97758830 1.65784031 143.24281525 -535.439633005389
1.41613850 1.67227733 110.66339861 -535.399703339167
1.26278443 1.78798382 100.01975621 -535.429646242875
1.35619121 1.55174493 102.36863269 -535.402486698467
1.43424420 1.65075931 112.18009177 -535.395455886727
0.88555917 1.89835839 100.28969002 -535.455820139306
1.00009414 1.87859160  95.49765731 -535.464626549292
1.10889032 1.88819440  99.40753691 -535.451297134063
0.93820866 1.70297029 108.15782351 -535.474642794385
0.90467666 1.59586860  87.51889201 -535.455940757045
0.99273996 1.96836238 114.81010442 -535.447940771779
1.00474460 1.69655413  76.52737396 -535.453171571811
1.10611178 1.71951482 104.31354764 -535.462331971010
0.86379985 1.78526920  89.72166368 -535.457503985745
0.91808192 1.97145186 106.84871887 -535.450426388376
0.90983867 1.74079054  84.75205775 -535.463471099425
1.37640211 1.69245575  96.04309999 -535.407719887380
0.99055757 1.87205409  93.41345937 -535.465330936718
0.86522061 1.70604125 102.51662500 -535.464533370679
0.84666401 1.69958412 124.28775416 -535.447156432519
1.30986001 1.66582732  86.80067017 -535.414528340694
0.86740000 1.65174339  81.01385540 -535.445730670379
1.04450437 1.61638891  81.48854164 -535.449811837617
1.26936723 1.90509744 103.19778503 -535.418096023158
0.94834718 1.68903124  93.79915913 -535.473437846791
1.11470641 1.63368807  93.74518563 -535.456168099221
1.24577717 1.67529730 115.91659441 -535.431680096337
1.07645923 2.04077637  99.67246806 -535.439505631516
1.12139841 1.67898236  67.86707946 -535.422773203331
1.12913319 1.54810595  97.82045302 -535.444522425841
1.09751369 1.80581263 101.41860381 -535.459816745283
0.96081235 1.77161760  66.33207488 -535.437445521109
0.90589978 1.90555753 100.66114317 -535.458473846174
1.07922770 1.74028753 103.43139918 -535.465908913589
0.92710484 1.55143903 118.54160245 -535.461703428129
1.41562428 1.65824174  90.30725337 -535.395351810709
0.90586188 1.58192234 109.86747302 -535.466847472027
0.99847886 1.86134569  92.45655613 -535.465656356135
1.07700600 1.75826917 108.70454912 -535.463908405405
0.78416288 1.57079387 110.64929672 -535.422603919592
1.17593194 1.52222408 106.96943468 -535.433915345848
1.13533499 1.79560960  99.25513729 -535.454332231912
1.17941099 1.68646336  99.75305705 -535.449294466308
0.90415428 1.69266507 119.70748127 -535.464872077398
0.90574847 1.45756004  89.58185495 -535.418805365476
1.12099635 1.95060836 103.19679584 -535.441987590214
1.02421632 1.70043884 103.91487227 -535.473329277223
0.93298664 1.84870838 111.02253903 -535.463124450841
0.80780554 1.73587095  89.32984325 -535.436796859810
0.73416889 1.69576459 132.24950962 -535.366895065828
0.97931320 1.50740472  95.22452843 -535.449220517166
1.27047465 1.70392938 105.73632082 -535.430631440375
0.98460899 1.68950995 134.90366251 -535.450753153461
0.86859541 1.84140751  94.97153621 -535.457258351707
0.90131329 1.67324028  90.89162259 -535.466712993392
0.94803122 1.91047667 101.37434409 -535.461518757692
1.05585412 2.08563075 100.15071161 -535.436812580725
1.28737342 1.51351749 100.40751499 -535.407295591292
1.02413891 1.96276488  98.16915430 -535.454346887790
0.94845133 1.63080268 136.65745596 -535.449571455678
0.93541979 1.86765289 110.51743065 -535.461658385390
1.19197304 1.68618516  79.70442843 -535.431809719232
1.06241630 1.74421703  92.16870131 -535.466014179552
1.29999882 1.67636451  69.83704712 -535.396230192644
1.01493054 1.44959558 112.39406385 -535.436012986252
1.02958526 1.73490583 110.52144478 -535.469926180358
0.95999745 1.64945861  78.60385682 -535.453139095628
0.89529676 1.73833940 134.50465628 -535.443970155841
1.19204170 1.57937370 103.84463920 -535.440409104024
0.92593426 1.68462993 103.76583653 -535.474790905843
0.86465455 1.72631055 117.89086421 -535.457146242640
1.32810683 1.72114595 109.63816758 -535.417088368137
1.30769179 1.64778973 111.45832707 -535.420931630981
1.06448648 2.10500517 104.22667274 -535.432229265544
1.12852273 1.70974766 114.76357693 -535.454569357673
1.48936723 1.66769789  89.12128710 -535.380704415720
0.92835363 1.95880389 115.86908734 -535.447005415715
1.04724182 1.72810741 112.23596691 -535.467467046033
0.75747066 1.71448532  87.06487806 -535.400955990434
1.03519248 1.74233728  79.35487187 -535.457367348517
1.05864691 1.68555895 133.20957096 -535.446791007215
0.95120069 1.64011176  95.59594693 -535.472438148626
0.98174630 1.44665614  79.98045054 -535.395816369588
0.90189680 1.60677415  88.68662220 -535.458679074512
0.75052622 1.67590872 135.80428919 -535.378746851774
1.07156675 1.45656259  96.58371383 -535.424256638882
0.98107898 2.10552392  92.62179324 -535.440852594555
0.92535569 1.67887269  99.93898819 -535.474356820059
0.89545283 1.67271201  97.39401087 -535.469800610035
0.94849397 1.89386507  93.07238454 -535.463347362921
0.80689946 1.72111289 122.56274860 -535.431026183008
0.89956691 1.79377331  97.28772649 -535.467500047382
0.97837102 1.83506370 118.02520959 -535.460234954672
1.14188729 1.61036218 109.56987303 -535.452863546400
1.28210585 1.70220353  63.81499079 -535.393309899240
1.04648286 1.76961239 110.16180596 -535.466430808397
0.96713268 1.44813454  65.27509263 -535.344838991020
0.87862283 1.71845045 127.51745716 -535.451246349491
1.33969078 1.69001283 115.13734137 -535.412709568428
0.99140010 1.80797783  96.15497548 -535.470742443110
1.23480592 2.14044054 101.55201694 -535.399844284811
1.09150627 1.70968791  86.50364623 -535.457904925448
1.15207415 1.67092273 129.41957056 -535.437127625315
1.08389670 1.80402478 103.75187565 -535.461576762440
0.96708064 1.85847593 132.39743525 -535.441326000966
1.14112362 1.62927644  96.84759129 -535.453024899319
0.69999490 1.45417174 102.54219600 -535.310245009327
0.93384712 1.99107130  92.68587491 -535.452458021403
0.89851766 1.64823361  76.98068194 -535.444331218737
1.30271325 1.70449290  93.28363049 -535.422026996145
1.21482782 1.68915021  89.03152815 -535.437246206181
0.79268689 1.67810930 124.93330839 -535.422659094895
0.85963116 1.85646416 109.97092922 -535.450395244349
0.91015491 1.64715501 107.70842368 -535.472223727893
0.99795273 1.67153806  80.86755982 -535.458646170591
1.01124501 1.76185123 108.02668911 -535.471152372658
0.86315775 1.66249484 114.92466550 -535.460710352175
0.96096368 1.55414159  70.82666533 -535.414325766020
0.97812171 1.50308915 102.67234299 -535.453781061865
1.05400770 1.62962115 109.84119612 -535.467735727507
0.84038665 2.03975430 100.62425719 -535.426606947711
0.95305991 1.85633589  58.78720087 -535.422108008214
0.90972047 1.83434612 100.22536319 -535.465967856740
1.41240949 1.67955482  95.55449798 -535.400006158874
0.94692881 1.68454071  88.17047437 -535.468873803012
1.00983814 1.82371393 104.02282142 -535.468117609541
0.92568308 1.67618685 115.77783895 -535.470527353079
1.07307083 1.66893732  73.05384757 -535.438304629752
1.04358650 1.59916211 122.82465425 -535.459322767875
0.88986281 2.02350902  97.36417126 -535.442948573675
1.26724159 1.71205028  97.45507114 -535.431007718581
0.80415922 1.61361838 117.15663655 -535.435277884436
0.92233957 1.89617203  89.92571181 -535.460476833748
0.89747288 1.59364721 106.29126180 -535.467190408098
0.97560309 1.67410683 103.02305509 -535.476087332111
1.13656446 1.54710417 105.04967222 -535.446023584772
0.93017460 1.53785251  97.20306202 -535.458152463413
1.04705351 1.77593313 109.12002039 -535.466456983407
1.12762044 1.68705892  64.32688793 -535.415164451740
0.99823640 1.66103102  88.58726035 -535.467567204629
0.76732554 1.71240625 109.20522473 -535.415505566001
0.86753336 1.72317481 140.79948481 -535.430121074128
0.95428301 1.91696747  59.79511063 -535.425322462283
1.18980229 1.68791702  97.51630564 -535.446763875364
0.99724338 1.84592174 110.94262611 -535.463827718873
1.13564665 1.51802156  98.23817550 -535.436683244036
1.06615723 1.71169718  95.09122171 -535.467192245060
0.95927211 2.02355988 109.92762643 -535.445168039270
0.93563295 1.78088553 105.89319454 -535.471499702155
0.95310614 1.51445967 120.10642616 -535.455280135077
1.20510428 1.69450102 114.50320383 -535.440632440300
0.84765273 1.69453851 117.57202196 -535.453765828770
1.23260765 1.77819447  99.21096763 -535.436451310466
0.92212326 1.95048795 106.82936624 -535.453322081968
0.95733237 1.62219204 106.99559888 -535.474102268246
1.00205758 1.70248221  81.12162225 -535.460822944437
1.03645879 1.66085358  95.11501754 -535.469555941615
1.28091156 1.73084199 100.40721501 -535.428277407363
0.84328851 1.64137065  90.04263834 -535.449807959736
1.05668725 1.67671237  90.57292915 -535.465002276802
0.86557499 1.79023416  89.32822487 -535.457514420591
0.83609984 1.67052749 143.16860285 -535.419977914073
0.92887386 1.75828119  77.54039351 -535.456388709999
1.00104124 1.76191771  97.53579963 -535.473046225435
0.93887063 2.21532063  90.42137222 -535.428069923333
1.05987787 1.60888408  90.54012840 -535.458933372430
0.86233506 1.71176498  90.83532571 -535.459405568752
1.00134864 1.64567908  84.68884808 -535.461606027743
0.90267636 1.60744010 107.84627030 -535.469117380200
0.92038147 1.76006740 125.98635155 -535.456602037533
1.03979965 1.73708325 141.56484822 -535.434007694374
0.94926897 1.61163813 107.11630154 -535.473210824448
0.96782856 1.87665668 106.44608269 -535.463818526386
0.92595267 1.75155615 119.66158540 -535.464310227762
0.96125298 1.62224943 132.62327922 -535.454907236147
0.82991450 1.47697821 108.65480370 -535.425752800966
1.01808249 1.58689435  93.73913477 -535.463211219855
0.84202217 1.75143041 114.37094936 -535.451244064887
0.99548740 1.90344786 103.32454117 -535.461510064884
1.08357988 2.00322890  99.41289558 -535.442864869359
1.00156095 1.47549842  89.69200331 -535.429621422170
1.22224975 1.78421393 104.27905013 -535.437728686503
0.92749029 1.80059714 101.43409290 -535.470410216365
1.14342709 1.73996564 112.16941839 -535.452333679477
0.99288944 1.70528249  68.75882354 -535.438523023552
0.97375476 1.51748673  85.10527352 -535.437708838966
1.01149709 1.70250367 112.40072834 -535.471653179806
0.96089279 1.59343043  87.32128861 -535.459299912423
0.99711198 1.84301472  92.45328016 -535.467150563018
1.03194095 2.13153988 104.29422698 -535.432659845822
1.02141466 1.65156344  66.90661102 -535.425848679949
1.04798835 2.04598625  97.83943385 -535.442725921040
0.91963648 1.76561305  61.37591490 -535.420804155639
0.92948600 1.71171811 124.28738801 -535.462300132307
0.85810910 1.59566447  90.07646499 -535.449376343347
0.75621858 1.77800767 112.51697167 -535.400798060870
1.02740796 1.73119307  82.02877855 -535.461220740417
0.95520143 2.04735694  85.71423793 -535.446021387780
1.12059629 1.80123338  95.70804694 -535.456212036090
0.84425571 1.70043093 136.52565106 -535.431045548698
1.16028834 1.49191956 104.97540862 -535.428500618481
0.88293634 1.78206704 102.69228398 -535.465291815571
0.92043884 1.80116755 107.51564374 -535.468184071076
0.99912757 1.65472462  84.44802107 -535.462245659815
0.76859598 1.61253969  92.44522823 -535.409513802606
0.94475444 1.45840879  90.50826275 -535.424208625704
0.93439245 2.02367009 108.55452642 -535.444812290463
0.94687427 1.65361114 134.12646303 -535.452954266768
1.45055804 1.65285783 102.77162493 -535.393769162406
0.95516933 1.60686342  88.74794523 -535.463051634678
0.93445332 1.99618367  93.41135312 -535.451989921174
0.98738493 2.04922147  89.75148401 -535.446757251399
1.12928484 2.02913497 103.99141221 -535.431442638861
0.80738407 1.68811028  96.88285127 -535.441266855349
0.86650567 1.68110787 144.02236185 -535.427546413130
1.01251130 1.53981315  95.15002118 -535.456020730975
0.99089573 1.50685946  96.30044329 -535.449738314304
1.03667496 1.84048985 109.91673532 -535.461936808297
0.97265039 2.00778318  86.87252892 -535.450751756809
0.93654084 1.74557316  64.08643118 -535.428541787445
1.01521330 1.62083154  94.29863291 -535.468079640426
0.89179795 1.63222109  96.49779928 -535.466751337797
0.93938494 1.60445584  91.77122579 -535.465472089242
0.79648662 1.70872025  77.09005074 -535.414071982221
0.98250409 1.83618445  91.76755612 -535.467958588600
1.16042487 1.69014057 132.78879050 -535.430812512292
0.99124897 1.81986026 120.07940365 -535.459375128540
1.04632750 1.95825804 104.34373686 -535.451168350966
0.90833747 1.70392837  72.76805069 -535.442813532532
1.23721487 2.08063180 103.67812966 -535.405272472012
0.75370879 1.82089452 105.89413246 -535.397936542319
1.24096252 1.89813062 101.53644322 -535.425088516357
0.95951305 1.96095196 130.75526996 -535.432387638597
0.94718104 1.48834750 119.16809272 -535.449352447478
1.11782751 1.57392506  99.19177505 -535.451849938063
1.01243197 1.60514683 119.00960840 -535.465870926810
0.96844723 1.91856789 105.98719046 -535.459527045750
0.97563048 1.55052712 105.10743185 -535.465537651117
0.87193548 1.70067140 115.89718127 -535.461617444299
1.12692428 1.48220486  99.88655221 -535.428625073082
0.86426918 1.71098924  98.53255668 -535.463703828988
1.10745522 1.67329162 145.38325104 -535.421522596542
1.34258474 1.69786060 105.24302365 -535.415740941435
0.97206722 1.63360213  79.97054244 -535.453724943355
1.03768185 1.58354159 112.05288654 -535.465366377502
0.83316888 1.70105598  98.91040378 -535.453678577476
0.76778044 1.75945315  91.63534982 -535.412262912686
0.94911604 1.68979777  95.35325055 -535.474294751255
0.92837346 1.69343868 118.56477504 -535.468327024612
1.09724789 1.70707638 110.43418864 -535.462226310882
0.96086210 1.73577325 115.13084019 -535.470455975310
0.89475255 1.54305376 112.67346947 -535.459236992086
0.86361688 1.54115110 100.64283135 -535.450642027414
0.87327310 1.78068999 101.76230305 -535.463338885938
1.40022706 1.61305399 102.08002080 -535.401237539848
1.19329623 1.66119947  95.40813537 -535.444438176652
0.88981481 1.97651931 104.24837303 -535.446727416893
0.94633311 1.86682200 125.95387098 -535.448354964527
1.08353315 1.72694384  98.63725956 -535.465613575880
0.96412112 1.54136775  99.91471877 -535.461914820800
0.99645460 1.53497974 132.38078046 -535.446775227566
0.98519046 1.82639116 105.96655248 -535.468521907676
1.01098130 1.48848636 109.97698076 -535.449716629015
1.36083098 1.66800529 115.66707431 -535.408267437553
1.03438997 1.49445834  98.55718803 -535.444686002572
0.97656742 1.93358194 109.04372387 -535.456268700037
0.97586149 1.61752531  83.69775863 -535.457676866412
1.05172868 1.65922769 136.17950280 -535.444055052256
0.90888651 1.71421445 115.22074410 -535.468172823232
1.01702538 1.62221680 109.99910985 -535.471150186802
1.00834451 1.74334698  72.62296670 -535.448693569020
0.95014138 1.87754367  84.27604180 -535.460882548784
0.95247282 2.09109028  88.01636030 -535.441819740157
0.85745733 1.71612596 111.10904517 -535.460026692446
1.01030808 1.61027235 119.01615702 -535.466343927938
1.01991737 1.74281773 137.30389122 -535.442152541236
1.03794885 1.78647572  89.35569101 -535.466003392136
0.98607915 1.62834342  74.78051411 -535.442463639058
1.19063719 1.69928395  97.28785680 -535.446653830556
1.08174719 1.76622608 103.61303081 -535.464325246516
0.87840264 1.96660960  99.19154183 -535.446895707811
0.81425840 1.62804372 120.73165695 -535.438334244214
0.95053671 1.75854926 107.95439400 -535.472899382276
1.09418443 1.80406713  96.06364935 -535.460338779808
1.10421226 1.90241337 105.95747511 -535.448855552962
0.95368370 1.54998671 123.94170559 -535.458654851969
1.04088731 1.66636561  66.98985933 -535.427316847277
1.00752244 1.86321613 104.12663188 -535.464681149398
1.01936210 1.69502431 129.70787516 -535.455301665338
1.25223351 1.43643260 104.92088041 -535.390294925550
0.87414807 1.64989680 123.48261937 -535.456704453428
1.03778593 1.74931574 125.08568319 -535.456308545542
1.00557399 1.66146278  81.77466015 -535.458758018720
1.34486789 1.69437019 116.19856195 -535.410904918914
1.03893558 1.93610092 108.86141675 -535.452333126871
0.78962710 1.65111400  87.18717711 -535.421696513950
0.93054255 1.57616086  86.26796383 -535.453381730502
0.96268324 1.97371236 103.23222697 -535.454288508171
0.93882998 1.57881846 113.21769508 -535.468418461312
1.01382579 1.81306362  91.13764784 -535.467667766483
0.86903730 1.61939737  80.63597718 -535.441326821059
0.96147847 1.72660859 118.20721970 -535.468566659443
0.95484987 1.67412137  90.50075266 -535.470786647674
0.98337607 1.75894357 122.93745507 -535.461813782068
0.98562025 1.68528379 115.66810642 -535.471491925005
0.92217796 1.80961703  79.41806778 -535.457876962248
1.09834612 1.65595063 133.50321709 -535.441193209108
0.98348902 1.90223918 139.88169691 -535.425388351683
0.99676470 1.75502944 112.81677914 -535.470037877102
1.01044796 1.85723485 116.45413506 -535.457956685904
0.94957895 1.93084725  87.98538792 -535.458414179306
1.14712175 1.70207765  65.92043689 -535.417754006231
0.95444481 1.73181016 123.61091110 -535.463065231838
1.05582339 1.64797494  92.79737466 -535.465172803093
0.84180883 1.77717558  94.78323717 -535.453351462201
0.87081774 1.87946010  95.41278135 -535.454509250952
1.26627158 1.70633400  96.50464825 -535.430962742266
1.26257017 1.68160836  78.18811858 -535.415637064349
1.08381664 1.67672935 107.74742362 -535.465523312111
1.25598262 2.00100985 102.61896977 -535.410755758979
0.82783487 1.69117426  84.07806980 -535.439959228307
1.12973918 1.64778187  88.25413369 -535.450220053949
1.07643200 1.72510819  77.52015270 -535.449754590580
0.97807789 1.43681750  95.90523899 -535.422286658639
0.92916351 1.57236363  79.53255662 -535.440011874577
0.80662079 1.76684955  92.82926216 -535.437538216165
0.91039250 1.75463941 113.98825351 -535.467015577777
1.08365048 1.71686321  66.25661242 -535.427762276242
1.07061220 1.78625302 114.90974810 -535.459321606878
0.81065883 1.67570574  95.41711152 -535.442030374428
1.45057782 1.71649367 114.97255824 -535.390283523152
0.94812266 1.77356062 132.10804550 -535.449501016017
0.99319787 1.44004176  79.84845906 -535.391580098277
0.83673910 1.70009656 134.04062759 -535.431835756873
0.95730963 1.60564490 109.98627285 -535.472425276867
1.30080015 1.69553024 138.85315640 -535.394299792536
0.87033460 1.69986649  68.65344946 -535.424928783626
0.91334359 1.77303526 134.25813878 -535.444030975306
0.92496778 1.67840062  78.84667450 -535.454486179171
0.98215980 1.57195544 110.72681258 -535.468491099543
1.21033092 1.55421314 104.39153558 -535.433086688293
1.10869969 1.64862353 118.45506412 -535.455766731543
0.95576045 1.71793835 138.19226557 -535.444955314469
1.21297121 1.67528216  61.27047065 -535.396076741289
1.01019936 1.54578355 101.97690423 -535.461993834787
0.97867809 1.67045815  79.55162561 -535.457031411122
0.95202297 2.06571149 124.16986999 -535.428385227971
1.16156923 1.67876139 106.90031690 -535.452459525243
0.97063427 1.94714333 122.18764717 -535.444115458212
1.07450681 1.64603507  77.75181200 -535.444131631926
1.21932826 1.85277968 100.93436026 -535.433814313656
1.28132104 1.59572908 102.52364997 -535.423924131573
0.90323704 1.95461660 102.58318335 -535.452149911211
1.04336462 1.81252784 116.21150207 -535.459485283028
1.04107511 1.81499986 107.04040238 -535.465096565137
1.24174801 1.65306289 103.64738646 -535.436275870666
1.13260713 1.67325680  77.03857762 -535.437452599669
0.96230201 1.87770370 113.62638353 -535.459524128167
1.20307366 1.57422863 105.44095602 -535.437730787611
0.90095136 1.48049310 108.64537793 -535.445213475448
1.00268753 1.78169462  83.41731079 -535.464319030809
0.89036263 1.54733951  89.33038291 -535.446668585109
0.97349982 1.80131471 103.74652550 -535.471464290072
1.05874232 1.74529434 106.32160303 -535.467845539509
1.01756930 1.75932600  70.28530300 -535.444483368517
1.12338486 2.05740067 104.21946461 -535.429098297339
1.11261402 1.71565910 140.04137921 -535.427544735738
1.00049357 1.59904986  91.25471138 -535.463856681812
0.94806331 1.56349701  61.61966106 -535.383227229880
1.02907079 1.61157544 118.24634938 -535.465324517754
1.13731638 1.52795576 100.21922116 -535.440137445558
0.94989347 1.72625264 102.74867185 -535.475503486648
1.13933314 1.69153660 124.66782327 -535.444539442267
0.85823460 1.60978510 119.86867500 -535.454781665764
1.17334575 1.73733686 106.62245091 -535.449235757997
0.75711552 1.48135184 105.47678981 -535.382914279404
1.24011757 1.61601604  99.82191995 -535.433708096217
0.97213815 1.75355079  88.38798026 -535.470136803577
1.11805333 2.05528541 104.64591686 -535.430044747954
1.35090587 1.69955295 103.80581094 -535.414148938630
1.04323152 1.79478265 118.17507831 -535.459343001217
1.01692728 1.85012779 103.73183927 -535.465369562851
0.95012640 1.54857746  99.24558227 -535.462826087168
1.04541467 1.84505911 109.28675926 -535.460933226701
1.39809357 1.61900270 106.63766184 -535.402435929648
0.87573530 1.80346908  90.12244461 -535.459855306577
1.01309775 1.62637589  58.85103771 -535.394564099912
1.05038785 1.46325125 104.19712603 -535.435769823575
1.23627588 1.67959443 100.33975541 -535.437837369205
0.97684044 1.81767522 110.15346266 -535.467589247917
0.95122180 1.80614905 130.42005442 -535.448991536878
0.99151748 1.72228933  72.22436692 -535.447409831455
0.86712302 1.70001289  71.80160027 -535.431839323634
1.01796809 1.51299602  91.46638657 -535.444358428724
1.20387481 1.66332859  97.18034180 -535.443172601571
0.92803476 1.68529528  63.83797115 -535.419788653973
1.46185906 1.69492173  86.61087262 -535.384919214418
0.99077196 1.70652497 131.14321121 -535.454885001725
0.95125988 1.51991065  94.64807209 -535.452241102880
0.92176803 1.62902604 129.37228903 -535.457441262470
1.16401024 1.50700131 102.38604085 -535.431068440095
1.12182608 1.73604544 107.53509724 -535.458403455626
0.93051407 1.74410684 114.37005215 -535.469353335967
0.85330256 2.06087271 107.39236351 -535.425902777913
1.02887979 1.65714723 111.68258896 -535.470749061324
0.97205709 1.93319764  84.77203841 -535.457073173924
0.93438637 1.78625522 105.04110474 -535.471288430711
1.03036949 1.63930403 121.49955649 -535.463683146434
0.85112281 2.01459477 102.35370666 -535.432899486525
1.19475274 1.65654902  87.02457303 -535.437656177517
1.07788934 1.57564190  98.49180848 -535.458000400881
1.15058027 1.98434291 102.63907347 -535.433285197461
0.96919977 1.70141834  78.36203888 -535.457418768236
1.03578315 1.82370230 104.86651327 -535.465689765339
0.87839392 1.64692715 119.95240918 -535.460753133949
0.96197900 1.66817604  59.31920874 -535.404299082886
0.96535550 1.67792788 127.23201230 -535.461381384112
1.00912052 1.56988827 123.23473610 -535.459745564063
1.02352220 1.67107748 117.30544285 -535.468006523087
1.09702068 1.79171406  99.26437778 -535.460935997423
0.94774520 1.51540851 103.51193752 -535.457484300460
1.00156952 1.68641058 115.10042366 -535.471055104709
0.90156023 1.56225429 106.72330482 -535.463869150555
1.00621403 1.89924180 115.16883475 -535.454832806712
1.25568040 1.69884529 102.22505469 -535.434078317821
0.87520534 1.72678821  72.15730718 -535.436808796661
0.80816430 1.86339752  97.23976199 -535.432507870465
0.96590642 1.61031814 122.68036981 -535.465312029276
1.06555695 1.62375960  90.02083775 -535.459452684864
0.94172779 1.57310351  69.89561401 -535.416016372800
0.93767508 2.06542809 116.65891056 -535.434571735398
0.97036439 1.70836115  68.73389515 -535.438765139233
1.26598319 1.69667369 127.92533276 -535.416049146074
1.03726535 1.68483918 122.02280332 -535.462455663397
1.03322605 1.66239321 115.65736142 -535.468209968048
0.85640744 2.11845417 106.96146576 -535.420296466060
0.96790543 1.49354950  98.88933876 -535.448568764414
1.04058989 1.70697421  88.78662732 -535.466330720861
1.21623438 1.68240570 106.54687316 -535.441790607882
1.03077745 1.60502861 113.22894313 -535.467584190479
1.15979706 2.08467502 103.49820905 -535.419914150205
0.86503093 1.74701941  85.39570586 -535.455318305627
1.06662633 1.76572651 119.17844071 -535.457830682622
1.03669236 1.69022642 149.27196942 -535.424542347737
1.01014605 1.70743516 132.57183988 -535.451772864899
0.88827056 1.83942852 105.00469860 -535.461135256840
1.07146349 1.53886718 110.04337978 -535.455097765335
1.09919968 1.65812190  96.44679351 -535.461783374643
1.01873550 1.64073491  64.79870221 -535.417995942834
1.05175819 1.73989892 102.55752124 -535.469612226500
1.33641469 1.69089743 120.54367417 -535.409405669116
0.96312918 1.50435894 133.62526071 -535.441095696876
0.81758457 1.63457978 120.35690846 -535.440331646738
1.06592730 1.70882405 123.66219035 -535.456651853133
0.95336085 1.82953145 126.66919387 -535.451577029778
0.88493135 1.72876848 102.44946172 -535.468467073567
0.92882897 1.73696891  95.88660593 -535.473145790692
0.82658256 1.69704544 113.37564374 -535.448584615671
0.95835598 1.55820232  76.83213542 -535.431871104025
0.96464303 1.46822874 139.05401092 -535.425781657244
0.96573790 1.50812517  79.84117320 -535.423262597004
1.42995165 1.84086937 102.24527022 -535.391024688608
1.31741462 1.69365695 102.34344067 -535.421172007989
0.88026357 1.54696351 106.12932309 -535.457622429340
0.88516989 1.70329532 134.37849915 -535.444583924728
0.80457725 1.67340779 100.83519096 -535.440838040944
1.02823422 1.80290475 117.78120708 -535.460509068331
0.92807638 1.70276062  63.74098119 -535.422005132504
0.91731462 1.72290660 104.54637546 -535.473298808967
0.92421046 1.72294737 114.27932887 -535.470024970160
0.88774620 1.76041994  98.22858478 -535.467458479025
0.95339800 2.08886206  83.16092894 -535.440750117414
0.91003988 2.15255720 110.52455003 -535.426243442415
1.00226672 1.63628310  69.68166711 -535.431232791501
0.94357121 1.65575793 112.42395164 -535.473456857022
1.08560294 2.14769572 105.09185078 -535.424346693099
1.12722288 1.69454008 142.97420859 -535.421358152298
0.93771826 1.58390144 106.03254978 -535.470111446057
1.28817198 1.68253108 120.32322755 -535.419571241800
0.98025695 1.57535900 118.08420464 -535.465800533123
1.16245483 1.59630813 107.79079002 -535.448156718943
0.76642123 1.49203948 103.53046656 -535.392674807961
1.17924049 1.73136151 113.52205041 -535.445205144265
0.91224048 1.79204731  91.24510739 -535.467439054475
1.03561808 1.70957665 105.42179411 -535.471889764151
1.00130934 1.57378198 103.53839963 -535.467805407012
0.82731462 1.71960515 118.53278467 -535.444348099977
0.99264340 1.81291184  60.04557409 -535.424666622899
1.03967640 1.67371026 110.08328607 -535.470457663029
1.17313375 1.62045884 102.65919221 -535.448152945170
0.85209995 1.73379500  77.78014544 -535.441244615898
0.77491518 1.66679742 115.53833592 -535.419155590536
1.41981197 1.64503910 104.66043325 -535.399525523711
0.99753629 1.73167685  89.02405675 -535.470090769041
1.01497519 1.77318534 123.77948347 -535.458132001548
1.18258661 1.83571285 101.89175198 -535.442401362381
0.98660063 2.00200523  88.62618151 -535.451633949323
0.89974396 1.88296050  99.63851671 -535.460041607821
0.95875969 1.55645581  96.21179607 -535.462363552688
0.85054132 1.86933097  97.92482268 -535.449772851006
1.03331273 2.17429878  98.26406458 -535.429679105743
0.89778183 1.76132857  86.29112400 -535.463031069020
1.04768497 1.74991595 115.58531282 -535.464127803728
1.10686106 1.83314836 101.48451061 -535.456254884869
0.95026985 1.94143386  77.05336832 -535.450252708452
0.89458101 1.53696658 116.02467557 -535.457032316784
0.89767477 1.72557279  75.44982983 -535.447910290939
1.01577693 1.83456671 107.69209112 -535.465436652494
0.81215435 1.68840950  60.15411107 -535.374119364913
0.99115805 1.54826403 121.82178541 -535.459327902055
0.90229959 1.61043370 106.13114525 -535.469402132064
1.06824703 1.65283430  86.21084741 -535.457839330616
0.99808492 1.82327392 115.38290816 -535.462855710365
0.95311224 1.85531480 115.41127328 -535.460340322380
0.93684159 1.58147996 137.29981975 -535.446492761753
1.05899210 1.68376220 111.50085232 -535.467556552438
0.99812362 1.66089609  88.92764693 -535.467899864073
0.98835183 1.80976437 100.30641302 -535.470952347704
1.05453552 1.75243314  86.51885497 -535.463088780393
0.96579691 1.59721361 108.31793437 -535.472026168174
0.93034728 1.81079199 131.98039841 -535.445369896954
0.97215888 1.76486380 132.68100907 -535.449644663082
0.94688230 1.56366899 112.96460962 -535.466956541931
1.05097642 1.60466653 107.98635417 -535.466823042018
0.98462819 1.84080533 123.17376623 -535.454393643730
0.92521319 1.69865078 110.60235505 -535.472948119753
0.73859579 1.81071339 105.99884617 -535.384804372001
0.99062056 1.82760277 127.59449869 -535.450318095763
1.15432535 1.72281017 104.79951274 -535.453739945126
0.96820514 1.91963075 122.40200778 -535.447011158654
0.87791843 1.69935056 126.11895499 -535.453673613473
0.95164432 1.53233255 132.09810965 -535.447910454233
1.02706868 1.56337218 112.08138945 -535.463969757585
0.98301806 1.68005800 139.06782784 -535.445124804465
0.99999862 1.66384072 108.17701155 -535.474351259976
1.11891519 1.77143103  96.23057841 -535.458148103046
0.95132899 1.78438834  86.83994178 -535.467908294699
1.02804741 1.50633645 103.05409966 -535.451689342034
1.04253991 1.92721125  97.39965537 -535.456507546222
1.01666449 1.69364340 115.53116786 -535.469550726783
0.91483501 2.06876663 101.16410927 -535.440696063785
1.00707471 1.90973877  94.32689868 -535.461174585554
1.01102704 1.73251539 128.00465074 -535.456286887850
0.96325634 1.79520044  86.87346532 -535.467778308951
0.90975965 1.66715687 104.24029139 -535.472995923801
0.98708859 1.89452780 123.01331068 -535.448848739569
1.01684244 1.81067377 118.83184292 -535.459857915655
1.25890908 1.62217183 103.23467334 -535.431043832954
0.93975495 1.73778835 146.87817221 -535.429446208658
0.92221831 1.65914049 152.59125876 -535.424287683162
1.35632644 1.73671527  95.75180493 -535.411540774239
0.98214442 1.69171103  74.33398129 -535.449427986353
0.90735935 1.64527547 112.50814649 -535.470302270842
0.64321608 1.68888476 103.00000000 -535.250134160428
0.65075377 1.68888476 103.00000000 -535.265622231331
0.65829146 1.68888476 103.00000000 -535.280239780008
0.66582915 1.68888476 103.00000000 -535.294030929086
0.67336683 1.68888476 103.00000000 -535.307037396753
0.68090452 1.68888476 103.00000000 -535.319298721454
0.68844221 1.68888476 103.00000000 -535.330852280116
0.69597990 1.68888476 103.00000000 -535.341733489750
0.70351759 1.68888476 103.00000000 -535.351975898941
0.71105528 1.68888476 103.00000000 -535.361613660512
0.71859296 1.68888476 103.00000000 -535.370672201937
0.72613065 1.68888476 103.00000000 -535.379182439957
0.73366834 1.68888476 103.00000000 -535.387171462823
0.74120603 1.68888476 103.00000000 -535.394664978734
0.74874372 1.68888476 103.00000000 -535.401687384316
0.75628141 1.68888476 103.00000000 -535.408261839289
0.76381910 1.68888476 103.00000000 -535.414410331160
0.77135678 1.68888476 103.00000000 -535.420153734320
0.77889447 1.68888476 103.00000000 -535.425511901056
0.78643216 1.68888476 103.00000000 -535.430503670771
0.79396985 1.68888476 103.00000000 -535.435146955616
0.80150754 1.68888476 103.00000000 -535.439458782720
0.80904523 1.68888476 103.00000000 -535.443455339389
0.81658291 1.68888476 103.00000000 -535.447153808518
0.82412060 1.68888476 103.00000000 -535.450565231261
0.83165829 1.68888476 103.00000000 -535.453705346938
0.83919598 1.68888476 103.00000000 -535.456587411200
0.84673367 1.68888476 103.00000000 -535.459224038556
0.85427136 1.68888476 103.00000000 -535.461627236122
0.86180905 1.68888476 103.00000000 -535.463808435385
0.86934673 1.68888476 103.00000000 -535.465778520627
0.87688442 1.68888476 103.00000000 -535.467547865446
0.88442211 1.68888476 103.00000000 -535.469126340807
0.89195980 1.68888476 103.00000000 -535.470523358551
0.89949749 1.68888476 103.00000000 -535.471747884726
0.90703518 1.68888476 103.00000000 -535.472808465016
0.91457286 1.68888476 103.00000000 -535.473713244378
0.92211055 1.68888476 103.00000000 -535.474469991971
0.92964824 1.68888476 103.00000000 -535.475086111999
0.93718593 1.68888476 103.00000000 -535.475568667589
0.94472362 1.68888476 103.00000000 -535.475924395786
0.95226131 1.68888476 103.00000000 -535.476159720792
0.95979899 1.68888476 103.00000000 -535.476280776402
0.96733668 1.68888476 103.00000000 -535.476293415228
0.97487437 1.68888476 103.00000000 -535.476203205534
0.98241206 1.68888476 103.00000000 -535.476015502285
0.98994975 1.68888476 103.00000000 -535.475735362467
0.99748744 1.68888476 103.00000000 -535.475367659003
1.00502513 1.68888476 103.00000000 -535.474917028639
1.01256281 1.68888476 103.00000000 -535.474387886589
1.02010050 1.68888476 103.00000000 -535.473784467111
1.02763819 1.68888476 103.00000000 -535.473110805204
1.03517588 1.68888476 103.00000000 -535.472370754849
1.04271357 1.68888476 103.00000000 -535.471567999598
1.05025126 1.68888476 103.00000000 -535.470706055958
1.05778894 1.68888476 103.00000000 -535.469788286233
1.06532663 1.68888476 103.00000000 -535.468817899534
1.07286432 1.68888476 103.00000000 -535.467797964333
1.08040201 1.68888476 103.00000000 -535.466731414142
1.08793970 1.68888476 103.00000000 -535.465621049921
1.09547739 1.68888476 103.00000000 -535.464469551181
1.10301508 1.68888476 103.00000000 -535.463279477802
1.11055276 1.68888476 103.00000000 -535.462053279485
1.11809045 1.68888476 103.00000000 -535.460793293195
1.12562814 1.68888476 103.00000000 -535.459501758436
1.13316583 1.68888476 103.00000000 -535.458180815213
1.14070352 1.68888476 103.00000000 -535.456832509184
1.14824121 1.68888476 103.00000000 -535.455458797418
1.15577889 1.68888476 103.00000000 -535.454061553884
1.16331658 1.68888476 103.00000000 -535.452642565666
1.17085427 1.68888476 103.00000000 -535.451203546758
1.17839196 1.68888476 103.00000000 -535.449746136108
1.18592965 1.68888476 103.00000000 -535.448271900878
1.19346734 1.68888476 103.00000000 -535.446783667594
1.20100503 1.68888476 103.00000000 -535.445280169629
1.20854271 1.68888476 103.00000000 -535.443764156953
1.21608040 1.68888476 103.00000000 -535.442236941165
1.22361809 1.68888476 103.00000000 -535.440699781093
1.23115578 1.68888476 103.00000000 -535.439153879901
1.23869347 1.68888476 103.00000000 -535.437600391389
1.24623116 1.68888476 103.00000000 -535.436040415904
1.25376884 1.68888476 103.00000000 -535.434475012526
1.26130653 1.68888476 103.00000000 -535.432905185974
1.26884422 1.68888476 103.00000000 -535.431331905939
1.27638191 1.68888476 103.00000000 -535.429756097653
1.28391960 1.68888476 103.00000000 -535.428178646206
1.29145729 1.68888476 103.00000000 -535.426600399930
1.29899497 1.68888476 103.00000000 -535.425022172247
1.30653266 1.68888476 103.00000000 -535.423444735839
1.31407035 1.68888476 103.00000000 -535.421868836771
1.32160804 1.68888476 103.00000000 -535.420295186382
1.32914573 1.68888476 103.00000000 -535.418724466123
1.33668342 1.68888476 103.00000000 -535.417157328509
1.34422111 1.68888476 103.00000000 -535.415594396735
1.35175879 1.68888476 103.00000000 -535.414036271504
1.35929648 1.68888476 103.00000000 -535.412483518842
1.36683417 1.68888476 103.00000000 -535.410936688202
1.37437186 1.68888476 103.00000000 -535.409396302406
1.38190955 1.68888476 103.00000000 -535.407862863208
1.38944724 1.68888476 103.00000000 -535.406336847457
1.39698492 1.68888476 103.00000000 -535.404818715893
1.40452261 1.68888476 103.00000000 -535.403308901727
1.41206030 1.68888476 103.00000000 -535.401807825529
1.41959799 1.68888476 103.00000000 -535.400315885718
1.42713568 1.68888476 103.00000000 -535.398833464861
1.43467337 1.68888476 103.00000000 -535.397360925862
1.44221106 1.68888476 103.00000000 -535.395898620857
1.44974874 1.68888476 103.00000000 -535.394446881940
1.45728643 1.68888476 103.00000000 -535.393006007775
1.46482412 1.68888476 103.00000000 -535.391576327524
1.47236181 1.68888476 103.00000000 -535.390158108608
1.47989950 1.68888476 103.00000000 -535.388751627032
1.48743719 1.68888476 103.00000000 -535.387357147140
1.49497487 1.68888476 103.00000000 -535.385974915029
1.50251256 1.68888476 103.00000000 -535.384605161065
1.51005025 1.68888476 103.00000000 -535.383248110994
1.51758794 1.68888476 103.00000000 -535.381903973150
1.52512563 1.68888476 103.00000000 -535.380572945664
1.53266332 1.68888476 103.00000000 -535.379255218015
1.54020101 1.68888476 103.00000000 -535.377950966920
1.54773869 1.68888476 103.00000000 -535.376660360258
1.55527638 1.68888476 103.00000000 -535.375383552429
1.56281407 1.68888476 103.00000000 -535.374120691156
1.57035176 1.68888476 103.00000000 -535.372871913348
1.57788945 1.68888476 103.00000000 -535.371637349724
1.58542714 1.68888476 103.00000000 -535.370417115979
1.59296482 1.68888476 103.00000000 -535.369211326530
1.60050251 1.68888476 103.00000000 -535.368020077138
1.60804020 1.68888476 103.00000000 -535.366843467927
1.61557789 1.68888476 103.00000000 -535.365681579834
1.62311558 1.68888476 103.00000000 -535.364534492878
1.63065327 1.68888476 103.00000000 -535.363402275281
1.63819095 1.68888476 103.00000000 -535.362284993337
1.64572864 1.68888476 103.00000000 -535.361182696476
1.65326633 1.68888476 103.00000000 -535.360095434292
1.66080402 1.68888476 103.00000000 -535.359023251777
1.66834171 1.68888476 103.00000000 -535.357966177350
1.67587940 1.68888476 103.00000000 -535.356924242843
1.68341709 1.68888476 103.00000000 -535.355897463903
1.69095477 1.68888476 103.00000000 -535.354885863011
1.69849246 1.68888476 103.00000000 -535.353889440865
1.70603015 1.68888476 103.00000000 -535.352908204353
1.71356784 1.68888476 103.00000000 -535.351942150008
1.72110553 1.68888476 103.00000000 -535.350991264614
1.72864322 1.68888476 103.00000000 -535.350055534221
1.73618090 1.68888476 103.00000000 -535.349134941086
1.74371859 1.68888476 103.00000000 -535.348229456532
1.75125628 1.68888476 103.00000000 -535.347339052353
1.75879397 1.68888476 103.00000000 -535.346463686274
1.76633166 1.68888476 103.00000000 -535.345603319402
1.77386935 1.68888476 103.00000000 -535.344757915266
1.78140704 1.68888476 103.00000000 -535.343927406091
1.78894472 1.68888476 103.00000000 -535.343111749926
1.79648241 1.68888476 103.00000000 -535.342310876620
1.80402010 1.68888476 103.00000000 -535.341524726906
1.81155779 1.68888476 103.00000000 -535.340753234571
1.81909548 1.68888476 103.00000000 -535.339996320104
1.82663317 1.68888476 103.00000000 -535.339253914241
1.83417085 1.68888476 103.00000000 -535.338525931358
1.84170854 1.68888476 103.00000000 -535.337812288207
1.85678392 1.68888476 103.00000000 -535.336427659258
1.86432161 1.68888476 103.00000000 -535.335756487711
1.87185930 1.68888476 103.00000000 -535.335099289385
1.87939698 1.68888476 103.00000000 -535.334455953520
1.88693467 1.68888476 103.00000000 -535.333826378528
1.89447236 1.68888476 103.00000000 -535.333210457409
1.90201005 1.68888476 103.00000000 -535.332608079021
1.90954774 1.68888476 103.00000000 -535.332019132333
1.91708543 1.68888476 103.00000000 -535.331443504497
1.92462312 1.68888476 103.00000000 -535.330881072092
1.93969849 1.68888476 103.00000000 -535.329795324262
1.94723618 1.68888476 103.00000000 -535.329271758935
1.95477387 1.68888476 103.00000000 -535.328760904298
1.96231156 1.68888476 103.00000000 -535.328262624635
1.96984925 1.68888476 103.00000000 -535.327776792459
1.97738693 1.68888476 103.00000000 -535.327303283888
1.98492462 1.68888476 103.00000000 -535.326841956031
1.99246231 1.68888476 103.00000000 -535.326392678483
2.00000000 1.68888476 103.00000000 -535.325955316537
0.96446195 1.25000000 103.00000000 -535.262729065113
0.96446195 1.25628141 103.00000000 -535.271806282816
0.96446195 1.26256281 103.00000000 -535.280568517727
0.96446195 1.26884422 103.00000000 -535.289025549587
0.96446195 1.27512563 103.00000000 -535.297186800966
0.96446195 1.28140704 103.00000000 -535.305061406771
0.96446195 1.28768844 103.00000000 -535.312658193295
0.96446195 1.29396985 103.00000000 -535.319985742321
0.96446195 1.30025126 103.00000000 -535.327052328278
0.96446195 1.30653266 103.00000000 -535.333865957939
0.96446195 1.31281407 103.00000000 -535.340434421831
0.96446195 1.31909548 103.00000000 -535.346765227244
0.96446195 1.32537688 103.00000000 -535.352865647617
0.96446195 1.33165829 103.00000000 -535.358742756487
0.96446195 1.33793970 103.00000000 -535.364403373882
0.96446195 1.34422111 103.00000000 -535.369854118318
0.96446195 1.35050251 103.00000000 -535.375101390378
0.96446195 1.35678392 103.00000000 -535.380151413403
0.96446195 1.36306533 103.00000000 -535.385010205667
0.96446195 1.36934673 103.00000000 -535.389683579489
0.96446195 1.37562814 103.00000000 -535.394177202574
0.96446195 1.38190955 103.00000000 -535.398496543673
0.96446195 1.38819095 103.00000000 -535.402646899097
0.96446195 1.39447236 103.00000000 -535.406633426159
0.96446195 1.40075377 103.00000000 -535.410461103231
0.96446195 1.40703518 103.00000000 -535.414134761411
0.96446195 1.41331658 103.00000000 -535.417659079972
0.96446195 1.41959799 103.00000000 -535.421038612222
0.96446195 1.42587940 103.00000000 -535.424277757014
0.96446195 1.43216080 103.00000000 -535.427380778866
0.96446195 1.43844221 103.00000000 -535.430351829770
0.96446195 1.44472362 103.00000000 -535.433194920717
0.96446195 1.45100503 103.00000000 -535.435913947452
0.96446195 1.45728643 103.00000000 -535.438512684266
0.96446195 1.46356784 103.00000000 -535.440994805085
0.96446195 1.46984925 103.00000000 -535.443363862106
0.96446195 1.47613065 103.00000000 -535.445623301297
0.96446195 1.48241206 103.00000000 -535.447776477581
0.96446195 1.48869347 103.00000000 -535.449826636518
0.96446195 1.49497487 103.00000000 -535.451778887203
0.96446195 1.50125628 103.00000000 -535.453632356049
0.96446195 1.50753769 103.00000000 -535.455391986444
0.96446195 1.51381910 103.00000000 -535.457060659927
0.96446195 1.52010050 103.00000000 -535.458641173158
0.96446195 1.52638191 103.00000000 -535.460136247313
0.96446195 1.53266332 103.00000000 -535.461548517651
0.96446195 1.53894472 103.00000000 -535.462880543258
0.96446195 1.54522613 103.00000000 -535.464134814212
0.96446195 1.55150754 103.00000000 -535.465313743735
0.96446195 1.55778894 103.00000000 -535.466419677031
0.96446195 1.56407035 103.00000000 -535.467454892783
0.96446195 1.57035176 103.00000000 -535.468421604957
0.96446195 1.57663317 103.00000000 -535.469321960464
0.96446195 1.58291457 103.00000000 -535.470158047491
0.96446195 1.58919598 103.00000000 -535.470931897363
0.96446195 1.59547739 103.00000000 -535.471645479556
0.96446195 1.60175879 103.00000000 -535.472300707928
0.96446195 1.60804020 103.00000000 -535.472899447070
0.96446195 1.61432161 103.00000000 -535.473443504422
0.96446195 1.62060302 103.00000000 -535.473934637528
0.96446195 1.62688442 103.00000000 -535.474374555826
0.96446195 1.63316583 103.00000000 -535.474764920839
0.96446195 1.63944724 103.00000000 -535.475107347436
0.96446195 1.64572864 103.00000000 -535.475403404401
0.96446195 1.65201005 103.00000000 -535.475654620411
0.96446195 1.65829146 103.00000000 -535.475862478956
0.96446195 1.66457286 103.00000000 -535.476028421664
0.96446195 1.67085427 103.00000000 -535.476153854440
0.96446195 1.67713568 103.00000000 -535.476240141306
0.96446195 1.68341709 103.00000000 -535.476288610486
0.96446195 1.68969849 103.00000000 -535.476300553241
0.96446195 1.69597990 103.00000000 -535.476277225429
0.96446195 1.70226131 103.00000000 -535.476219849544
0.96446195 1.70854271 103.00000000 -535.476129614518
0.96446195 1.71482412 103.00000000 -535.476007676212
0.96446195 1.72110553 103.00000000 -535.475855160750
0.96446195 1.72738693 103.00000000 -535.475673163285
0.96446195 1.73366834 103.00000000 -535.475462749454
0.96446195 1.73994975 103.00000000 -535.475224954738
0.96446195 1.74623116 103.00000000 -535.474960788872
0.96446195 1.75251256 103.00000000 -535.474671234397
0.96446195 1.75879397 103.00000000 -535.474357245744
0.96446195 1.76507538 103.00000000 -535.474019752897
0.96446195 1.77135678 103.00000000 -535.473659662066
0.96446195 1.77763819 103.00000000 -535.473277852925
0.96446195 1.78391960 103.00000000 -535.472875183629
0.96446195 1.79020101 103.00000000 -535.472452488150
0.96446195 1.79648241 103.00000000 -535.472010579869
0.96446195 1.80276382 103.00000000 -535.471550247961
0.96446195 1.80904523 103.00000000 -535.471072262470
0.96446195 1.81532663 103.00000000 -535.470577374409
0.96446195 1.82160804 103.00000000 -535.470066309800
0.96446195 1.82788945 103.00000000 -535.469539779749
0.96446195 1.83417085 103.00000000 -535.468998477057
0.96446195 1.84045226 103.00000000 -535.468443071709
0.96446195 1.84673367 103.00000000 -535.467874218998
0.96446195 1.85301508 103.00000000 -535.467292557062
0.96446195 1.85929648 103.00000000 -535.466698706397
0.96446195 1.86557789 103.00000000 -535.466093268958
0.96446195 1.87185930 103.00000000 -535.465476833744
0.96446195 1.87814070 103.00000000 -535.464849973742
0.96446195 1.88442211 103.00000000 -535.464213243753
0.96446195 1.89070352 103.00000000 -535.463567187406
0.96446195 1.89698492 103.00000000 -535.462912331742
0.96446195 1.90326633 103.00000000 -535.462249189240
0.96446195 1.90954774 103.00000000 -535.461578260275
0.96446195 1.91582915 103.00000000 -535.460900031658
0.96446195 1.92211055 103.00000000 -535.460214976800
0.96446195 1.92839196 103.00000000 -535.459523555025
0.96446195 1.93467337 103.00000000 -535.458826215097
0.96446195 1.94095477 103.00000000 -535.458123394401
0.96446195 1.94723618 103.00000000 -535.457415515476
0.96446195 1.95351759 103.00000000 -535.456702991905
0.96446195 1.95979899 103.00000000 -535.455986226690
0.96446195 1.96608040 103.00000000 -535.455265608933
0.96446195 1.97236181 103.00000000 -535.454541519356
0.96446195 1.97864322 103.00000000 -535.453814328204
0.96446195 1.98492462 103.00000000 -535.453084396536
0.96446195 1.99120603 103.00000000 -535.452352071950
0.96446195 1.99748744 103.00000000 -535.451617695235
0.96446195 2.00376884 103.00000000 -535.450881599548
0.96446195 2.01005025 103.00000000 -535.450144103522
0.96446195 2.01633166 103.00000000 -535.449405521024
0.96446195 2.02261307 103.00000000 -535.448666156748
0.96446195 2.02889447 103.00000000 -535.447926307430
0.96446195 2.03517588 103.00000000 -535.447186257075
0.96446195 2.04145729 103.00000000 -535.446446286442
0.96446195 2.04773869 103.00000000 -535.445706672863
0.96446195 2.05402010 103.00000000 -535.444967660799
0.96446195 2.06030151 103.00000000 -535.444229525623
0.96446195 2.06658291 103.00000000 -535.443492513239
0.96446195 2.07286432 103.00000000 -535.442756847088
0.96446195 2.07914573 103.00000000 -535.442022787032
0.96446195 2.08542714 103.00000000 -535.441290546387
0.96446195 2.09170854 103.00000000 -535.440560339352
0.96446195 2.09798995 103.00000000 -535.439832389455
0.96446195 2.10427136 103.00000000 -535.439106901469
0.96446195 2.11055276 103.00000000 -535.438384076697
0.96446195 2.11683417 103.00000000 -535.437664108833
0.96446195 2.12311558 103.00000000 -535.436947186710
0.96446195 2.12939698 103.00000000 -535.436233494657
0.96446195 2.13567839 103.00000000 -535.435523206986
0.96446195 2.14195980 103.00000000 -535.434816496763
0.96446195 2.14824121 103.00000000 -535.434113529343
0.96446195 2.15452261 103.00000000 -535.433414466569
0.96446195 2.16080402 103.00000000 -535.432719461581
0.96446195 2.16708543 103.00000000 -535.432028664313
0.96446195 2.17336683 103.00000000 -535.431342221926
0.96446195 2.17964824 103.00000000 -535.430660272143
0.96446195 2.18592965 103.00000000 -535.429982950808
0.96446195 2.19221106 103.00000000 -535.429310387911
0.96446195 2.19849246 103.00000000 -535.428642710477
0.96446195 2.20477387 103.00000000 -535.427980037367
0.96446195 2.21105528 103.00000000 -535.427322486886
0.96446195 2.21733668 103.00000000 -535.426670171010
0.96446195 2.22361809 103.00000000 -535.426023195670
0.96446195 2.24246231 103.00000000 -535.424115342544
0.96446195 2.24874372 103.00000000 -535.423490732943
0.96446195 2.25502513 103.00000000 -535.422871943873
0.96446195 2.26130653 103.00000000 -535.422259060396
0.96446195 2.26758794 103.00000000 -535.421652161650
0.96446195 2.27386935 103.00000000 -535.421051323293
0.96446195 2.28015075 103.00000000 -535.420456619103
0.96446195 2.28643216 103.00000000 -535.419868118586
0.96446195 2.29899497 103.00000000 -535.418709991189
0.96446195 2.30527638 103.00000000 -535.418140484457
0.96446195 2.31155779 103.00000000 -535.417577426746
0.96446195 2.32412060 103.00000000 -535.416470863392
0.96446195 2.33040201 103.00000000 -535.415927454951
0.96446195 2.33668342 103.00000000 -535.415390686889
0.96446195 2.34924623 103.00000000 -535.414337235665
0.96446195 2.35552764 103.00000000 -535.413820625422
0.96446195 2.36809045 103.00000000 -535.412807797004
0.96446195 2.37437186 103.00000000 -535.412311638884
0.96446195 2.38065327 103.00000000 -535.411822345065
0.96446195 2.38693467 103.00000000 -535.411339945194
0.96446195 2.39321608 103.00000000 -535.410864453939
0.96446195 2.39949749 103.00000000 -535.410395888531
0.96446195 2.40577889 103.00000000 -535.409934264171
0.96446195 2.41206030 103.00000000 -535.409479593884
0.96446195 2.41834171 103.00000000 -535.409031885639
0.96446195 2.42462312 103.00000000 -535.408591148269
0.96446195 2.43090452 103.00000000 -535.408157388195
0.96446195 2.43718593 103.00000000 -535.407730605418
0.96446195 2.44974874 103.00000000 -535.406897980871
0.96446195 2.45603015 103.00000000 -535.406492137705
0.96446195 2.46231156 103.00000000 -535.406093263449
0.96446195 2.47487437 103.00000000 -535.405316400199
0.96446195 1.68888476  40.00000000 -535.296999955275
0.96446195 1.68888476  40.70351759 -535.303403000108
0.96446195 1.68888476  41.40703518 -535.309545096218
0.96446195 1.68888476  42.11055276 -535.315438557830
0.96446195 1.68888476  42.81407035 -535.321095354055
0.96446195 1.68888476  43.51758794 -535.326527081425
0.96446195 1.68888476  44.22110553 -535.331746344899
0.96446195 1.68888476  44.92462312 -535.336761170190
0.96446195 1.68888476  45.62814070 -535.341583262565
0.96446195 1.68888476  46.33165829 -535.346222542747
0.96446195 1.68888476  47.03517588 -535.350688492034
0.96446195 1.68888476  47.73869347 -535.354990147658
0.96446195 1.68888476  48.44221106 -535.359136107913
0.96446195 1.68888476  49.14572864 -535.363134531143
0.96446195 1.68888476  49.84924623 -535.366993145788
0.96446195 1.68888476  50.55276382 -535.370719258134
0.96446195 1.68888476  51.25628141 -535.374319760033
0.96446195 1.68888476  51.95979899 -535.377801139703
0.96446195 1.68888476  52.66331658 -535.381169498809
0.96446195 1.68888476  53.36683417 -535.384430560380
0.96446195 1.68888476  54.07035176 -535.387589684524
0.96446195 1.68888476  54.77386935 -535.390651884182
0.96446195 1.68888476  55.47738693 -535.393621840099
0.96446195 1.68888476  56.18090452 -535.396503912503
0.96446195 1.68888476  56.88442211 -535.399302163059
0.96446195 1.68888476  57.58793970 -535.402020363515
0.96446195 1.68888476  58.29145729 -535.404662015973
0.96446195 1.68888476  58.99497487 -535.407230365285
0.96446195 1.68888476  59.69849246 -535.409728416461
0.96446195 1.68888476  60.40201005 -535.412158946659
0.96446195 1.68888476  61.10552764 -535.414524521853
0.96446195 1.68888476  61.80904523 -535.416827509186
0.96446195 1.68888476  62.51256281 -535.419070090556
0.96446195 1.68888476  63.21608040 -535.421254274615
0.96446195 1.68888476  63.91959799 -535.423381913232
0.96446195 1.68888476  64.62311558 -535.425454706512
0.96446195 1.68888476  65.32663317 -535.427474218810
0.96446195 1.68888476  66.03015075 -535.429441888651
0.96446195 1.68888476  66.73366834 -535.431359036269
0.96446195 1.68888476  67.43718593 -535.433226875695
0.96446195 1.68888476  68.14070352 -535.435046522411
0.96446195 1.68888476  68.84422111 -535.436819001003
0.96446195 1.68888476  69.54773869 -535.438545254174
0.96446195 1.68888476  70.25125628 -535.440226148905
0.96446195 1.68888476  70.95477387 -535.441862482865
0.96446195 1.68888476  71.65829146 -535.443454992979
0.96446195 1.68888476  72.36180905 -535.445004356798
0.96446195 1.68888476  73.06532663 -535.446511202638
0.96446195 1.68888476  73.76884422 -535.447976109923
0.96446195 1.68888476  74.47236181 -535.449399618836
0.96446195 1.68888476  75.17587940 -535.450782228896
0.96446195 1.68888476  75.87939698 -535.452124408190
0.96446195 1.68888476  76.58291457 -535.453426592684
0.96446195 1.68888476  77.28643216 -535.454689190987
0.96446195 1.68888476  77.98994975 -535.455912590062
0.96446195 1.68888476  78.69346734 -535.457097154066
0.96446195 1.68888476  79.39698492 -535.458243228207
0.96446195 1.68888476  80.10050251 -535.459351142673
0.96446195 1.68888476  80.80402010 -535.460421212381
0.96446195 1.68888476  81.50753769 -535.461453741980
0.96446195 1.68888476  82.21105528 -535.462449024139
0.96446195 1.68888476  82.91457286 -535.463407343356
0.96446195 1.68888476  83.61809045 -535.464328977386
0.96446195 1.68888476  84.32160804 -535.465214198051
0.96446195 1.68888476  85.02512563 -535.466063270575
0.96446195 1.68888476  85.72864322 -535.466876458197
0.96446195 1.68888476  86.43216080 -535.467654020629
0.96446195 1.68888476  87.13567839 -535.468396221119
0.96446195 1.68888476  87.83919598 -535.469103287426
0.96446195 1.68888476  88.54271357 -535.469775517634
0.96446195 1.68888476  89.24623116 -535.470413143428
0.96446195 1.68888476  89.94974874 -535.471016406429
0.96446195 1.68888476  90.65326633 -535.471585586279
0.96446195 1.68888476  91.35678392 -535.472120919844
0.96446195 1.68888476  92.06030151 -535.472622684773
0.96446195 1.68888476  92.76381910 -535.473091096479
0.96446195 1.68888476  93.46733668 -535.473526453524
0.96446195 1.68888476  94.17085427 -535.473928998384
0.96446195 1.68888476  94.87437186 -535.474298977934
0.96446195 1.68888476  95.57788945 -535.474636692384
0.96446195 1.68888476  96.28140704 -535.474942374710
0.96446195 1.68888476  96.98492462 -535.475216312173
0.96446195 1.68888476  97.68844221 -535.475458755031
0.96446195 1.68888476  98.39195980 -535.475669981280
0.96446195 1.68888476  99.09547739 -535.475850263201
0.96446195 1.68888476  99.79899497 -535.475999874537
0.96446195 1.68888476 100.50251256 -535.476119092117
0.96446195 1.68888476 101.20603015 -535.476208193775
0.96446195 1.68888476 101.90954774 -535.476267459534
0.96446195 1.68888476 102.61306533 -535.476297172694
0.96446195 1.68888476 103.31658291 -535.476297617200
0.96446195 1.68888476 104.02010050 -535.476269078745
0.96446195 1.68888476 104.72361809 -535.476211847095
0.96446195 1.68888476 105.42713568 -535.476126211683
0.96446195 1.68888476 106.13065327 -535.476012465118
0.96446195 1.68888476 106.83417085 -535.475870902185
0.96446195 1.68888476 107.53768844 -535.475701819056
0.96446195 1.68888476 108.24120603 -535.475505515178
0.96446195 1.68888476 108.94472362 -535.475282289983
0.96446195 1.68888476 109.64824121 -535.475032447665
0.96446195 1.68888476 110.35175879 -535.474756292008
0.96446195 1.68888476 111.05527638 -535.474454131755
0.96446195 1.68888476 111.75879397 -535.474126274792
0.96446195 1.68888476 112.46231156 -535.473773034253
0.96446195 1.68888476 113.16582915 -535.473394723462
0.96446195 1.68888476 113.86934673 -535.472991660453
0.96446195 1.68888476 114.57286432 -535.472564163832
0.96446195 1.68888476 115.27638191 -535.472112556135
0.96446195 1.68888476 115.97989950 -535.471637162875
0.96446195 1.68888476 116.68341709 -535.471138311774
0.96446195 1.68888476 117.38693467 -535.470616334981
0.96446195 1.68888476 118.09045226 -535.470071566675
0.96446195 1.68888476 118.79396985 -535.469504344229
0.96446195 1.68888476 119.49748744 -535.468915011157
0.96446195 1.68888476 120.20100503 -535.468303913340
0.96446195 1.68888476 120.90452261 -535.467671400372
0.96446195 1.68888476 121.60804020 -535.467017827469
0.96446195 1.68888476 122.31155779 -535.466343553403
0.96446195 1.68888476 123.01507538 -535.465648941861
0.96446195 1.68888476 123.71859296 -535.464934362950
0.96446195 1.68888476 124.42211055 -535.464200191347
0.96446195 1.68888476 125.12562814 -535.463446806575
0.96446195 1.68888476 125.82914573 -535.462674596285
0.96446195 1.68888476 126.53266332 -535.461883955512
0.96446195 1.68888476 127.23618090 -535.461075271538
0.96446195 1.68888476 127.93969849 -535.460248965587
0.96446195 1.68888476 128.64321608 -535.459405454789
0.96446195 1.68888476 129.34673367 -535.458545135511
0.96446195 1.68888476 130.05025126 -535.457668462215
0.96446195 1.68888476 130.75376884 -535.456775854100
0.96446195 1.68888476 131.45728643 -535.455867768010
0.96446195 1.68888476 132.16080402 -535.454944655313
0.96446195 1.68888476 132.86432161 -535.454006981441
0.96446195 1.68888476 133.56783920 -535.453055218213
0.96446195 1.68888476 134.27135678 -535.452089851338
0.96446195 1.68888476 134.97487437 -535.451111375554
0.96446195 1.68888476 135.67839196 -535.450120296763
0.96446195 1.68888476 136.38190955 -535.449117132239
0.96446195 1.68888476 137.08542714 -535.448102411639
0.96446195 1.68888476 137.78894472 -535.447076677739
0.96446195 1.68888476 138.49246231 -535.446040485248
0.96446195 1.68888476 139.19597990 -535.444994402839
0.96446195 1.68888476 139.89949749 -535.443939014376
0.96446195 1.68888476 140.60301508 -535.442874916587
0.96446195 1.68888476 141.30653266 -535.441802723180
0.96446195 1.68888476 142.01005025 -535.440723063271
0.96446195 1.68888476 142.71356784 -535.439636581485
0.96446195 1.68888476 143.41708543 -535.438543941084
0.96446195 1.68888476 144.12060302 -535.437445822242
0.96446195 1.68888476 144.82412060 -535.436342924003
0.96446195 1.68888476 145.52763819 -535.435235964468
0.96446195 1.68888476 146.23115578 -535.434125681205
0.96446195 1.68888476 146.93467337 -535.433012832712
0.96446195 1.68888476 147.63819095 -535.431898198659
0.96446195 1.68888476 148.34170854 -535.430782579885
0.96446195 1.68888476 149.04522613 -535.429666800898
0.96446195 1.68888476 149.74874372 -535.428551708101
0.96446195 1.68888476 150.45226131 -535.427438172736
0.96446195 1.68888476 151.15577889 -535.426327090103
0.96446195 1.68888476 151.85929648 -535.425219380407
0.96446195 1.68888476 152.56281407 -535.424115989965
0.96446195 1.68888476 153.26633166 -535.423017889984
0.96446195 1.68888476 153.96984925 -535.421926079113
0.96446195 1.68888476 154.67336683 -535.420841583311
0.96446195 1.68888476 155.37688442 -535.419765454149
0.96446195 1.68888476 156.08040201 -535.418698771415
0.96446195 1.68888476 156.78391960 -535.417642641798
0.96446195 1.68888476 157.48743719 -535.416598198986
0.96446195 1.68888476 158.19095477 -535.415566603741
0.96446195 1.68888476 158.89447236 -535.414549042971
0.96446195 1.68888476 159.59798995 -535.413546729987
0.96446195 1.68888476 160.30150754 -535.412560900925
0.96446195 1.68888476 161.00502513 -535.411592816820
0.96446195 1.68888476 161.70854271 -535.410643760290
0.96446195 1.68888476 162.41206030 -535.409715033175
0.96446195 1.68888476 163.11557789 -535.408807957393
0.96446195 1.68888476 163.81909548 -535.407923867820
0.96446195 1.68888476 164.52261307 -535.407064111727
0.96446195 1.68888476 165.22613065 -535.406230047056
0.96446195 1.68888476 165.92964824 -535.405423035839
0.96446195 1.68888476 166.63316583 -535.404644440074
0.96446195 1.68888476 167.33668342 -535.403895619354
0.96446195 1.68888476 168.04020101 -535.403177922378
0.96446195 1.68888476 168.74371859 -535.402492683956
0.96446195 1.68888476 169.44723618 -535.401841217610
0.96446195 1.68888476 170.15075377 -535.401224808265
0.96446195 1.68888476 170.85427136 -535.400644708055
0.96446195 1.68888476 171.55778894 -535.400102126534
0.96446195 1.68888476 172.26130653 -535.399598223853
0.96446195 1.68888476 172.96482412 -535.399134104054
0.96446195 1.68888476 173.66834171 -535.398710808254
0.96446195 1.68888476 174.37185930 -535.398329303575
0.96446195 1.68888476 175.07537688 -535.397990479934
0.96446195 1.68888476 175.77889447 -535.397695140187
0.96446195 1.68888476 176.48241206 -535.397443995517
0.96446195 1.68888476 177.18592965 -535.397237658560
0.96446195 1.68888476 177.88944724 -535.397076638410
0.96446195 1.68888476 178.59296482 -535.396961334329
0.96446195 1.68888476 179.29648241 -535.396892035788
2.01000000 1.68888476 103.00000000 -535.325393240162
2.02000000 1.68888476 103.00000000 -535.324851570991
2.03000000 1.68888476 103.00000000 -535.324329989514
2.04000000 1.68888476 103.00000000 -535.323828158399
2.05000000 1.68888476 103.00000000 -535.323345760985
2.06000000 1.68888476 103.00000000 -535.322882458392
2.07000000 1.68888476 103.00000000 -535.322437920312
2.09000000 1.68888476 103.00000000 -535.321603796123
2.10000000 1.68888476 103.00000000 -535.321213543894
2.11000000 1.68888476 103.00000000 -535.320840721695
2.12000000 1.68888476 103.00000000 -535.320484985681
2.13000000 1.68888476 103.00000000 -535.320146009642
2.14000000 1.68888476 103.00000000 -535.319823460832
2.15000000 1.68888476 103.00000000 -535.319517003258
2.16000000 1.68888476 103.00000000 -535.319226305566
2.17000000 1.68888476 103.00000000 -535.318951044378
2.18000000 1.68888476 103.00000000 -535.318690890574
2.19000000 1.68888476 103.00000000 -535.318445509903
2.20000000 1.68888476 103.00000000 -535.318214598316
2.22000000 1.68888476 103.00000000 -535.317794859877
2.23000000 1.68888476 103.00000000 -535.317605409046
2.24000000 1.68888476 103.00000000 -535.317429145302
2.25000000 1.68888476 103.00000000 -535.317265778427
2.26000000 1.68888476 103.00000000 -535.317114980235
2.27000000 1.68888476 103.00000000 -535.316976457790
2.28000000 1.68888476 103.00000000 -535.316849915946
2.29000000 1.68888476 103.00000000 -535.316735053654
2.30000000 1.68888476 103.00000000 -535.316631582098
0.96446195 2.53000000 103.00000000 -535.402234258574
end