structural
morse    2
rOHe    0   0   0    0          0.96446195
rOCle   0   0   0    0          1.68888476
alphae  0   0   0    0          103.000000
am1     0   0   0    0          2.00000000
am2     0   0   0    0          2.00000000
end

linear
f    0   0   0    1     0.0000000
f    0   0   1    1     0.0000000
f    0   0   2    1     0.0000000
f    0   0   3    1     0.0000000
f    0   0   4    1     0.0000000
f    0   0   5    1     0.0000000
f    0   0   6    1     0.0000000
f    0   0   7    1     0.0000000
f    0   0   8    1     0.0000000
f    0   1   0    1     0.0000000
f    0   2   0    1     0.0000000
f    0   3   0    1     0.0000000
f    0   4   0    1     0.0000000
f    0   5   0    1     0.0000000
f    0   6   0    1     0.0000000
f    0   7   0    1     0.0000000
f    0   8   0    1     0.0000000
f    1   0   0    1     0.0000000
f    2   0   0    1     0.0000000
f    3   0   0    1     0.0000000
f    4   0   0    1     0.0000000
f    5   0   0    1     0.0000000
f    6   0   0    1     0.0000000
f    7   0   0    1     0.0000000
f    8   0   0    1     0.0000000
f    0   1   1    1     0.0000000
f    0   1   2    1     0.0000000
f    0   1   3    1     0.0000000
f    0   1   4    1     0.0000000
f    0   1   5    1     0.0000000
f    0   1   6    1     0.0000000
f    0   1   7    1     0.0000000
f    0   2   1    1     0.0000000
f    0   2   2    1     0.0000000
f    0   2   3    1     0.0000000
f    0   2   4    1     0.0000000
f    0   2   5    1     0.0000000
f    0   2   6    1     0.0000000
f    0   3   1    1     0.0000000
f    0   3   2    1     0.0000000
f    0   3   3    1     0.0000000
f    0   3   4    1     0.0000000
f    0   3   5    1     0.0000000
f    0   4   1    1     0.0000000
f    0   4   2    1     0.0000000
f    0   4   3    1     0.0000000
f    0   4   4    1     0.0000000
f    0   5   1    1     0.0000000
f    0   5   2    1     0.0000000
f    0   5   3    1     0.0000000
f    0   6   1    1     0.0000000
f    0   6   2    1     0.0000000
f    0   7   1    1     0.0000000
f    1   0   1    1     0.0000000
f    1   0   2    1     0.0000000
f    1   0   3    1     0.0000000
f    1   0   4    1     0.0000000
f    1   0   5    1     0.0000000
f    1   0   6    1     0.0000000
f    1   0   7    1     0.0000000
f    1   1   0    1     0.0000000
f    1   2   0    1     0.0000000
f    1   3   0    1     0.0000000
f    1   4   0    1     0.0000000
f    1   5   0    1     0.0000000
f    1   6   0    1     0.0000000
f    1   7   0    1     0.0000000
f    2   0   1    1     0.0000000
f    2   0   2    1     0.0000000
f    2   0   3    1     0.0000000
f    2   0   4    1     0.0000000
f    2   0   5    1     0.0000000
f    2   0   6    1     0.0000000
f    2   1   0    1     0.0000000
f    2   2   0    1     0.0000000
f    2   3   0    1     0.0000000
f    2   4   0    1     0.0000000
f    2   5   0    1     0.0000000
f    2   6   0    1     0.0000000
f    3   0   1    1     0.0000000
f    3   0   2    1     0.0000000
f    3   0   3    1     0.0000000
f    3   0   4    1     0.0000000
f    3   0   5    1     0.0000000
f    3   1   0    1     0.0000000
f    3   2   0    1     0.0000000
f    3   3   0    1     0.0000000
f    3   4   0    1     0.0000000
f    3   5   0    1     0.0000000
f    4   0   1    1     0.0000000
f    4   0   2    1     0.0000000
f    4   0   3    1     0.0000000
f    4   0   4    1     0.0000000
f    4   1   0    1     0.0000000
f    4   2   0    1     0.0000000
f    4   3   0    1     0.0000000
f    4   4   0    1     0.0000000
f    5   0   1    1     0.0000000
f    5   0   2    1     0.0000000
f    5   0   3    1     0.0000000
f    5   1   0    1     0.0000000
f    5   2   0    1     0.0000000
f    5   3   0    1     0.0000000
f    6   0   1    1     0.0000000
f    6   0   2    1     0.0000000
f    6   1   0    1     0.0000000
f    6   2   0    1     0.0000000
f    7   0   1    1     0.0000000
f    7   1   0    1     0.0000000
f    1   1   1    1     0.0000000
f    1   1   2    1     0.0000000
f    1   1   3    1     0.0000000
f    1   1   4    1     0.0000000
f    1   1   5    1     0.0000000
f    1   1   6    1     0.0000000
f    1   2   1    1     0.0000000
f    1   2   2    1     0.0000000
f    1   2   3    1     0.0000000
f    1   2   4    1     0.0000000
f    1   2   5    1     0.0000000
f    1   3   1    1     0.0000000
f    1   3   2    1     0.0000000
f    1   3   3    1     0.0000000
f    1   3   4    1     0.0000000
f    1   4   1    1     0.0000000
f    1   4   2    1     0.0000000
f    1   4   3    1     0.0000000
f    1   5   1    1     0.0000000
f    1   5   2    1     0.0000000
f    1   6   1    1     0.0000000
f    2   1   1    1     0.0000000
f    2   1   2    1     0.0000000
f    2   1   3    1     0.0000000
f    2   1   4    1     0.0000000
f    2   1   5    1     0.0000000
f    2   2   1    1     0.0000000
f    2   2   2    1     0.0000000
f    2   2   3    1     0.0000000
f    2   2   4    1     0.0000000
f    2   3   1    1     0.0000000
f    2   3   2    1     0.0000000
f    2   3   3    1     0.0000000
f    2   4   1    1     0.0000000
f    2   4   2    1     0.0000000
f    2   5   1    1     0.0000000
f    3   1   1    1     0.0000000
f    3   1   2    1     0.0000000
f    3   1   3    1     0.0000000
f    3   1   4    1     0.0000000
f    3   2   1    1     0.0000000
f    3   2   2    1     0.0000000
f    3   2   3    1     0.0000000
f    3   3   1    1     0.0000000
f    3   3   2    1     0.0000000
f    3   4   1    1     0.0000000
f    4   1   1    1     0.0000000
f    4   1   2    1     0.0000000
f    4   1   3    1     0.0000000
f    4   2   1    1     0.0000000
f    4   2   2    1     0.0000000
f    4   3   1    1     0.0000000
f    5   1   1    1     0.0000000
f    5   1   2    1     0.0000000
f    5   2   1    1     0.0000000
f    6   1   1    1     0.0000000
end

grid
0.96446195000000 1.68888476000000 103.00000000000000 -535.47563143287516
0.95946195000000 1.68888476000000 103.00000000000000 -535.47560845604005
0.99446195000000 1.68888476000000 103.00000000000000 -535.47485406978296
0.92946195000000 1.68888476000000 103.00000000000000 -535.47440529413291
0.99946195000000 1.68888476000000 103.00000000000000 -535.47458577281691
0.92446195000000 1.68888476000000 103.00000000000000 -535.47401007719100
1.00446195000000 1.68888476000000 103.00000000000000 -535.47428151352801
0.91946195000000 1.68888476000000 103.00000000000000 -535.47355397759395
1.00946195000000 1.68888476000000 103.00000000000000 -535.47394258156396
0.91446195000000 1.68888476000000 103.00000000000000 -535.47303488639204
1.01446195000000 1.68888476000000 103.00000000000000 -535.47357021912899
0.90946195000000 1.68888476000000 103.00000000000000 -535.47245062547097
1.01946195000000 1.68888476000000 103.00000000000000 -535.47316564158405
0.90446195000000 1.68888476000000 103.00000000000000 -535.47179894286205
1.02446195000000 1.68888476000000 103.00000000000000 -535.47273002061002
0.89946195000000 1.68888476000000 103.00000000000000 -535.47107751590795
1.02946195000000 1.68888476000000 103.00000000000000 -535.47226449542200
0.89446195000000 1.68888476000000 103.00000000000000 -535.47028394780602
1.03446195000000 1.68888476000000 103.00000000000000 -535.47177016762896
0.88946195000000 1.68888476000000 103.00000000000000 -535.46941576925292
1.03946195000000 1.68888476000000 103.00000000000000 -535.47124810873697
0.88446195000000 1.68888476000000 103.00000000000000 -535.46847041975695
1.04446195000000 1.68888476000000 103.00000000000000 -535.47069935982802
0.87946195000000 1.68888476000000 103.00000000000000 -535.46744526572695
1.04946195000000 1.68888476000000 103.00000000000000 -535.47012492687497
1.05446195000000 1.68888476000000 103.00000000000000 -535.46952578828495
0.86946195000000 1.68888476000000 103.00000000000000 -535.46514456274701
1.05946195000000 1.68888476000000 103.00000000000000 -535.46890289206397
1.06446195000000 1.68888476000000 103.00000000000000 -535.46825715986699
0.85446195000000 1.68888476000000 103.00000000000000 -535.46102395566697
1.07446195000000 1.68888476000000 103.00000000000000 -535.46690072827698
1.08446195000000 1.68888476000000 103.00000000000000 -535.46546332424396
0.83946195000000 1.68888476000000 103.00000000000000 -535.45602488716804
1.11446195000000 1.68888476000000 103.00000000000000 -535.46072773856395
0.81446195000000 1.68888476000000 103.00000000000000 -535.44548477867500
0.76446195000000 1.68888476000000 103.00000000000000 -535.41426504783794
1.26446195000000 1.68888476000000 103.00000000000000 -535.43156578764001
1.36446195000000 1.68888476000000 103.00000000000000 -535.41073837341401
1.46446195000000 1.68888476000000 103.00000000000000 -535.39095775040505
1.66446195000000 1.68888476000000 103.00000000000000 -535.35781867077117
0.96446195000000 1.68388476000000 103.00000000000000 -535.47562138384399
0.96446195000000 1.69388476000000 103.00000000000000 -535.47561904088195
0.96446195000000 1.67888476000000 103.00000000000000 -535.47558825845795
0.96446195000000 1.67388476000000 103.00000000000000 -535.47553141357196
0.96446195000000 1.70388476000000 103.00000000000000 -535.47552940346498
0.96446195000000 1.66888476000000 103.00000000000000 -535.47545018032395
0.96446195000000 1.66388476000000 103.00000000000000 -535.47534388629504
0.96446195000000 1.71388476000000 103.00000000000000 -535.47535727040804
0.96446195000000 1.65888476000000 103.00000000000000 -535.47521183501999
0.96446195000000 1.65388476000000 103.00000000000000 -535.47505332325602
0.96446195000000 1.63888476000000 103.00000000000000 -535.47441168081104
0.96446195000000 1.73888476000000 103.00000000000000 -535.47459570347598
0.96446195000000 1.63388476000000 103.00000000000000 -535.47413991021199
0.96446195000000 1.74388476000000 103.00000000000000 -535.47439089115005
0.96446195000000 1.62888476000000 103.00000000000000 -535.47383788733691
0.96446195000000 1.74888476000000 103.00000000000000 -535.47416976550301
0.96446195000000 1.62388476000000 103.00000000000000 -535.47350480632304
0.96446195000000 1.75388476000000 103.00000000000000 -535.47393281929396
0.96446195000000 1.61888476000000 103.00000000000000 -535.47313983625497
0.96446195000000 1.75888476000000 103.00000000000000 -535.47368052542595
0.96446195000000 1.61388476000000 103.00000000000000 -535.47274213241292
0.96446195000000 1.76388476000000 103.00000000000000 -535.47341335804003
0.96446195000000 1.60888476000000 103.00000000000000 -535.47231082567100
0.96446195000000 1.76888476000000 103.00000000000000 -535.47313176944897
0.96446195000000 1.60388476000000 103.00000000000000 -535.47184503231097
0.96446195000000 1.77388476000000 103.00000000000000 -535.47283620622795
0.96446195000000 1.59888476000000 103.00000000000000 -535.47134384748301
0.96446195000000 1.59388476000000 103.00000000000000 -535.47080633855001
0.96446195000000 1.58888476000000 103.00000000000000 -535.47023156168200
0.96446195000000 1.57888476000000 103.00000000000000 -535.46896629265200
0.96446195000000 1.79888476000000 103.00000000000000 -535.47116381491799
0.96446195000000 1.56888476000000 103.00000000000000 -535.46754000024805
0.96446195000000 1.80888476000000 103.00000000000000 -535.47041168424596
0.96446195000000 1.81388476000000 103.00000000000000 -535.47001935275796
0.96446195000000 1.56388476000000 103.00000000000000 -535.46676385348098
0.96446195000000 1.83888476000000 103.00000000000000 -535.46790956817495
0.96446195000000 1.53888476000000 103.00000000000000 -535.46220884120601
0.96446195000000 1.48888476000000 103.00000000000000 -535.44923390551503
0.96446195000000 1.38888476000000 103.00000000000000 -535.40244903068196
0.96446195000000 1.28888476000000 103.00000000000000 -535.31343428563798
0.96446195000000 1.68888476000000 102.00000000000000 -535.47560317585101
0.96446195000000 1.68888476000000 105.00000000000000 -535.47551237423897
0.96446195000000 1.68888476000000 101.00000000000000 -535.47551530368696
0.96446195000000 1.68888476000000 100.50000000000000 -535.47544875863400
0.96446195000000 1.68888476000000 100.00000000000000 -535.47536700782302
0.96446195000000 1.68888476000000 107.00000000000000 -535.47516476071405
0.96446195000000 1.68888476000000  98.00000000000000 -535.47488595390303
0.96446195000000 1.68888476000000  98.00000000000000 -535.47488595390303
0.96446195000000 1.68888476000000 110.50000000000000 -535.47402688121497
0.96446195000000 1.68888476000000  95.50000000000000 -535.47393067676398
0.96446195000000 1.68888476000000  93.00000000000000 -535.47257089563902
0.96446195000000 1.68888476000000 120.50000000000000 -535.46737210144295
0.96446195000000 1.68888476000000  85.50000000000000 -535.46594799393995
0.96446195000000 1.68888476000000 123.00000000000000 -535.46499883916101
0.96446195000000 1.68888476000000  83.00000000000000 -535.46285419610899
0.96446195000000 1.68888476000000 125.50000000000000 -535.46237328537904
0.96446195000000 1.68888476000000  80.50000000000000 -535.45929766997801
0.96446195000000 1.68888476000000 128.00000000000000 -535.45951258668697
0.96446195000000 1.68888476000000  78.00000000000000 -535.45526545790597
0.96446195000000 1.68888476000000 133.00000000000000 -535.45315973383197
0.96446195000000 1.68888476000000  73.00000000000000 -535.44571194823095
0.96446195000000 1.68888476000000 138.00000000000000 -535.44610164470896
0.96446195000000 1.68888476000000  68.00000000000000 -535.43402911035298
0.96446195000000 1.68888476000000 143.00000000000000 -535.43852631202697
0.96446195000000 1.68888476000000  63.00000000000000 -535.41993706104893
0.96446195000000 1.68888476000000 148.00000000000000 -535.43065722265601
0.96446195000000 1.68888476000000  58.00000000000000 -535.40293063538797
0.96446195000000 1.68888476000000 153.00000000000000 -535.42276417098105
0.96446195000000 1.68888476000000 163.00000000000000 -535.40828327433599
0.96446195000000 1.68888476000000  43.00000000000000 -535.32193176888495
0.96446195000000 1.68888476000000 173.00000000000000 -535.39843657547897
0.96446195000000 1.68888476000000 180.00000000000000 -535.39619259589199
1.16230627000000 1.75150156000000 103.00000000000000 -535.45082882064605
0.89590574000000 1.83858284000000 103.00000000000000 -535.46245940254096
0.96446195000000 1.92387026000000 129.27339301000001 -535.43779534378803
0.90154427000000 1.81542520000000 103.00000000000000 -535.46536897741203
1.34371700000000 1.65501426000000 103.00000000000000 -535.41443956892499
0.93413177000000 1.68888476000000  95.79554147000000 -535.47310439232206
1.04944394000000 1.56331514000000 103.00000000000000 -535.46097525216203
0.96446195000000 1.81375024000000 109.08229544000000 -535.46790812912093
1.16090462000000 1.68888476000000  74.89871955000000 -535.42999230207897
0.75596095000000 1.68888476000000 104.86471890999999 -535.40730261951296
0.87029844000000 1.51309446000000 103.00000000000000 -535.44639111826700
0.84934524000000 2.04532522000000 103.00000000000000 -535.42771936995916
0.95028017000000 1.68888476000000 110.45128012000001 -535.47387054565195
0.89985783000000 1.71434045000000 103.00000000000000 -535.47079612312803
1.10887792000000 1.88772027000000 103.00000000000000 -535.44995621124895
0.87068148000000 1.68888476000000  68.47436053000000 -535.42260511875293
1.01419001000000 1.68888476000000 127.52899197000001 -535.45791735076602
0.96105346000000 1.69171888000000 103.00000000000000 -535.47561627127902
1.21546648000000 1.58725847000000 103.00000000000000 -535.43589997583399
0.89712833000000 1.73160081000000 103.00000000000000 -535.46984737217292
1.14018532000000 1.68888476000000 117.38406251000001 -535.45046738525116
0.96446195000000 1.49306374000000 107.19265715000000 -535.45207387966002
0.96446195000000 1.63810273000000 127.41119356000000 -535.46075685677499
1.24206753000000 1.68888476000000  97.84864592000000 -535.43558120609600
0.96446195000000 1.75143658000000  90.97520461000001 -535.47125737695899
1.25333876000000 1.69060467000000 103.00000000000000 -535.43388794536997
0.96446195000000 1.59407480000000 104.25655079000001 -535.47104669390899
0.96446195000000 1.87532437000000  81.22337779000000 -535.45830509222003
0.91960947000000 1.40021095000000 103.00000000000000 -535.40757498137498
1.04462798000000 1.68888476000000  76.06147023000000 -535.44817874620105
0.99137116000000 1.87475582000000 103.00000000000000 -535.46404044538804
1.40149156000000 1.68888476000000 118.73187847000000 -535.39729283625604
1.30378478000000 1.68888476000000 123.66263475000000 -535.41251266120901
0.96446195000000 1.76842914000000  78.88455279999999 -535.45941800090600
0.98715142000000 1.68888476000000 133.73877092000001 -535.45162471829201
0.96446195000000 1.90175558000000 107.76807920000000 -535.45986553875400
0.95927528000000 1.68888476000000 104.23313401999999 -535.47556169143797
0.98017984000000 1.68888476000000  91.80600056999999 -535.47160135334002
1.31360365000000 1.68748834000000 103.00000000000000 -535.42127931232994
0.96446195000000 1.96044984000000 118.46760025000000 -535.44553400674602
1.05510547000000 1.60900127000000 103.00000000000000 -535.46598505572001
0.99373301000000 1.68888476000000  91.74533809000000 -535.47107890313805
0.96446195000000 1.74487273000000  66.10745448999999 -535.43471198276495
0.85908112000000 1.68888476000000  84.91264730000000 -535.45134377547095
0.89243821000000 1.43906689000000 103.00000000000000 -535.42463900952805
0.96446195000000 1.91921784000000  75.92479295000000 -535.45036484720299
1.29168253000000 1.64034640000000 103.00000000000000 -535.42463367056405
0.93925365000000 1.68888476000000  89.64178613000000 -535.46936605955500
1.01828762000000 1.68888476000000  80.65574509000000 -535.45773315048405
1.04526772000000 1.68888476000000  86.48615373000000 -535.46247616988092
0.98624567000000 1.56598865000000 103.00000000000000 -535.46661625693298
1.08296168000000 1.68888476000000  71.43276272999999 -535.43538875017396
1.07060218000000 1.64203701000000 103.00000000000000 -535.46626206953397
0.77040458000000 1.68888476000000 110.83738708999999 -535.41728008693292
0.82234158000000 1.96036056000000 103.00000000000000 -535.42731321764597
0.95133151000000 1.68888476000000 100.76483933000000 -535.47531727705291
0.96446195000000 1.56415881000000 135.72437022000000 -535.44688408395496
0.97358087000000 1.79057027000000 103.00000000000000 -535.47170796063006
0.98655498000000 1.87526678000000 103.00000000000000 -535.46416328080795
0.94312786000000 1.68888476000000  60.21479400000000 -535.40930544145795
1.17051702000000 1.68888476000000 109.61406540000000 -535.44926128908696
0.90708504000000 1.59848820000000 103.00000000000000 -535.46797829014395
0.74324755000000 1.68888476000000 116.63261057000000 -535.39127128547796
0.96446195000000 1.66435704000000 135.42477181000001 -535.45054642424805
0.96446195000000 1.43602255000000 111.09378012000001 -535.43194830044195
1.01708103000000 1.79460633000000 103.00000000000000 -535.46936696924001
0.96446195000000 1.76553577000000 105.61458057000000 -535.47279098809202
0.87629303000000 1.54880567000000 103.00000000000000 -535.45564334893004
1.07181987000000 1.73895990000000 103.00000000000000 -535.46636601492605
0.96446195000000 1.71774280000000 105.73850634000000 -535.47490763677501
0.96446195000000 1.70876003000000  90.57778986000000 -535.47126836992891
0.96446195000000 1.96429512000000  88.76247669000000 -535.45509542020397
1.24615516000000 1.47887231000000 103.00000000000000 -535.40619564563099
1.26168693000000 1.76184093000000 103.00000000000000 -535.43036194005902
0.98565650000000 1.68888476000000  75.28340018000000 -535.45029789356499
1.21764227000000 1.68464960000000 103.00000000000000 -535.44121729077483
0.85802687000000 1.68888476000000  74.81160679000000 -535.43419941693401
1.25910729000000 1.68888476000000 111.83794724000001 -535.43047772088005
0.97616102000000 1.68888476000000  73.17028635000000 -535.44618954070893
0.96446195000000 1.65878540000000  94.30993108000000 -535.47228464546492
1.47244320000000 1.78280543000000 103.00000000000000 -535.38617838347295
1.14389702000000 1.68888476000000 110.99925152000000 -535.45366852992697
0.84978038000000 1.68888476000000  71.46514272000000 -535.42400086719601
0.95155555000000 1.68888476000000  96.16238645999999 -535.47404543237997
1.15500283000000 1.68888476000000  74.22565509000000 -535.42990672736005
0.93436831000000 1.84860888000000 103.00000000000000 -535.46597042679002
0.96446195000000 1.87528577000000 117.01102064000000 -535.45643084388905
0.78741541000000 1.67045084000000 103.00000000000000 -535.43045543971300
1.19750964000000 1.88197009000000 103.00000000000000 -535.43441289144801
1.00243155000000 1.68888476000000  72.06204803999999 -535.44335069383101
0.96446195000000 1.84015446000000  71.33601122000000 -535.44761539729404
0.96446195000000 1.92521704000000 116.05392596000000 -535.45170273399799
0.96446195000000 1.64823108000000  85.79394038000000 -535.46353894180299
1.00834763000000 1.68888476000000 136.79048148000001 -535.44608072390395
1.28613439000000 1.68888476000000 116.43268673999999 -535.42221528802395
0.75445496000000 1.67440659000000 103.00000000000000 -535.40609746847201
0.79490875000000 1.74295811000000 103.00000000000000 -535.43346889343604
1.01217177000000 1.90202547000000 103.00000000000000 -535.46012482670301
0.75139675000000 1.68888476000000 130.10548524000001 -535.38558512846600
0.96446195000000 1.64889995000000 133.96319689000001 -535.45273166116897
0.96446195000000 1.81553778000000  76.27630762000000 -535.45540594666500
0.90327245000000 1.68888476000000  93.21789481000000 -535.46855590399116
0.96446195000000 1.44907326000000 125.70467247000001 -535.43227518084404
0.96446195000000 1.68357694000000 122.40671949999999 -535.46572091143798
0.99914076000000 1.68888476000000 111.03817666000000 -535.47273351173897
0.96446195000000 1.96693406000000 102.20408247000000 -535.45474207221400
0.96446195000000 1.75097014000000 126.69696377000000 -535.45778866020203
0.96446195000000 1.88330147000000  85.71283932999999 -535.46104379839801
0.81092505000000 1.68888476000000 122.49495374999999 -535.43403637824599
0.98072226000000 1.68888476000000 123.00426323000001 -535.46472514787001
1.07126041000000 1.68888476000000  79.04691744000000 -535.45004949898805
0.99163793000000 1.92382115000000 103.00000000000000 -535.45890692548096
0.96446195000000 1.58434724000000 111.17372503999999 -535.46952072013403
0.96979198000000 1.81382988000000 103.00000000000000 -535.47001878567517
1.22036426000000 1.68888476000000 106.94861218000000 -535.44018461357916
1.10210148000000 1.68888476000000 103.83071870000001 -535.46271489217202
0.96446195000000 1.53191823000000  70.71690409999999 -535.40591521134195
1.00005861000000 1.59769114000000 103.00000000000000 -535.47006074484091
0.96446195000000 1.68512231000000 111.00336134000000 -535.47385585782297
1.12294726000000 1.83220819000000 103.00000000000000 -535.45270926185401
1.06897018000000 1.73809517000000 103.00000000000000 -535.46678339832204
0.99308416000000 1.68888476000000  82.04180776000000 -535.46109844854402
1.11363191000000 1.68888476000000  83.18692407000000 -535.44950874102597
1.28804454000000 1.68888476000000  94.87090037999999 -535.42492611928799
0.96446195000000 1.87550132000000  84.44021171999999 -535.46080057075699
1.19656585000000 1.68888476000000 117.45753528000000 -535.43971661018600
0.96446195000000 1.80772559000000  95.45947712000000 -535.47046083861517
0.96446195000000 1.83579881000000  88.82188598000000 -535.46617963664698
0.88301665000000 1.73513150000000 103.00000000000000 -535.46715356575498
1.11018672000000 1.78251754000000 103.00000000000000 -535.45843364928101
1.41160176000000 1.69184291000000 103.00000000000000 -535.40120873092496
0.84541152000000 1.67663767000000 103.00000000000000 -535.45810712836499
0.96446195000000 1.77656005000000  99.54433475000000 -535.47287093740601
1.11616959000000 1.68888476000000  95.45653855000000 -535.45893627440000
1.26560411000000 1.68888476000000 105.84260583000000 -535.43106526285101
0.74068272000000 1.59962306000000 103.00000000000000 -535.39014842413803
1.07119347000000 1.68888476000000 103.84416908000000 -535.46731949714001
0.90832772000000 1.74827032000000 103.00000000000000 -535.47075909504997
0.96446195000000 1.57553055000000 145.13078965000000 -535.43494007876495
0.96446195000000 1.66779931000000  80.09511065000000 -535.45703896740099
0.97655834000000 1.70238104000000 103.00000000000000 -535.47542094821802
1.08467740000000 1.68888476000000 134.40876646000001 -535.44076110148296
0.71200863000000 1.59726291000000 103.00000000000000 -535.35872067642902
0.96446195000000 1.98523692000000  94.98372716999999 -535.45376315232295
0.96446195000000 1.90380906000000 120.82655036000000 -535.44972895127603
1.30085042000000 1.68888476000000 107.34764212000000 -535.42340238014106
0.96446195000000 1.53907888000000 138.97079833999999 -535.43979760485900
0.88346431000000 1.68888476000000 104.93891284999999 -535.46818690793896
0.96446195000000 1.76228692000000 107.78603218000001 -535.47228011120399
0.96446195000000 1.84409723000000 110.10989770000000 -535.46458601291999
0.89698607000000 1.68888476000000  63.23285936000000 -535.41304365771998
1.10642725000000 1.68888476000000  93.96683367000000 -535.45983596629003
1.06508114000000 1.78967098000000 103.00000000000000 -535.46463400774201
0.96446195000000 1.53667837000000 125.85125085999999 -535.45436020003797
0.96446195000000 1.77721965000000 114.45121313999999 -535.46761338660394
0.96446195000000 1.52314447000000  96.22526525000001 -535.45418407683292
1.10876062000000 1.68888476000000  67.62726827000000 -535.42436532717102
0.90104912000000 1.87850592000000 103.00000000000000 -535.45939999836696
0.96446195000000 1.57887797000000  90.91720304000000 -535.46070294605795
1.10962220000000 1.68888476000000  93.26865167000000 -535.45894303111595
1.46885765000000 1.66815306000000 103.00000000000000 -535.39000383231803
1.05355857000000 1.68888476000000 129.65675612000001 -535.45131825050896
1.03620008000000 1.68888476000000  91.40826281000000 -535.46766871603597
0.95025529000000 1.68888476000000 136.63541985000001 -535.44796183405299
1.25857837000000 1.68888476000000 105.59793732000000 -535.43256795247396
1.07581452000000 1.68888476000000 115.16657255000000 -535.46249342663998
0.90653562000000 1.68888476000000  85.23399102000000 -535.46171589123196
0.82424072000000 1.83341889000000 103.00000000000000 -535.44192350930598
0.69264051000000 1.93752806000000 103.00000000000000 -535.31563415927599
1.05468918000000 1.68888476000000  84.56391326000001 -535.45933848871516
0.77910691000000 2.01406734000000 103.00000000000000 -535.39612359500404
0.91527669000000 2.05700789000000 103.00000000000000 -535.44087051431495
1.02632760000000 1.92991572000000 103.00000000000000 -535.45604332398204
0.95033699000000 1.84365509000000 103.00000000000000 -535.46721960969796
1.06759687000000 1.68888476000000 106.89301544999999 -535.46735269617602
0.96446195000000 1.84583643000000 102.35746992000000 -535.46742444237691
0.96446195000000 1.71922132000000 115.51099791000000 -535.47032777919003
1.09417273000000 1.63504518000000 103.00000000000000 -535.46243158236200
1.33814712000000 1.68888476000000  84.69093646000000 -535.40722006803799
0.96446195000000 1.58571683000000  95.95690419000000 -535.46647013425002
0.89451941000000 1.99861005000000 103.00000000000000 -535.44475232933598
1.01858333000000 1.68888476000000 111.70280572999999 -535.47104139621104
1.05213398000000 1.69766461000000 103.00000000000000 -535.46979107372397
0.96446195000000 1.55581521000000 118.05341857000001 -535.46308705682702
0.96446195000000 1.45046350000000 113.82803515000001 -535.43798393439101
0.96446195000000 1.62171354000000  69.84907088999999 -535.42824762197199
0.83971918000000 1.68888476000000 107.93176679000000 -535.45551202880893
0.96446195000000 1.82814406000000  91.90658753000000 -535.46806994982205
1.08631244000000 1.75749660000000 103.00000000000000 -535.46352036376800
0.96446195000000 1.68915089000000  97.67638750000000 -535.47478763632398
0.99285205000000 1.68888476000000 107.88389634000001 -535.47422259354801
0.93302760000000 1.68888476000000 104.19069785000001 -535.47461435518596
0.90941147000000 1.68888476000000  97.08813893000000 -535.47132556521603
0.89673879000000 1.82481889000000 103.00000000000000 -535.46382011157596
1.27557638000000 1.66692373000000 103.00000000000000 -535.42896158711198
0.96446195000000 1.73504416000000 112.30114430000000 -535.47164307247203
0.96446195000000 1.70337148000000  91.83038838000000 -535.47207700693502
1.02310789000000 1.68888476000000  84.27072776000000 -535.46212929901196
0.96446195000000 1.78279902000000  88.85462036000000 -535.46897357415605
1.24115296000000 1.75079548000000 103.00000000000000 -535.43513244014900
0.96446195000000 1.48139639000000 133.06523435000000 -535.43561688123498
0.84387899000000 1.68888476000000  88.58263153999999 -535.45058957224717
1.19086353000000 1.47054190000000 103.00000000000000 -535.41417761177399
1.01998570000000 1.80494165000000 103.00000000000000 -535.46839366401002
0.96446195000000 1.70909926000000  66.48721528000000 -535.43243436568605
0.96446195000000 1.72955201000000  89.30447940000001 -535.47041284355203
0.96446195000000 1.79214483000000  88.95135021999999 -535.46865187724302
1.05025317000000 1.68888476000000 129.71048633000001 -535.45164993481296
0.85428147000000 1.69313713000000 103.00000000000000 -535.46094269757202
1.05183713000000 1.68888476000000 128.55996497999999 -535.45288361253802
1.36959764000000 1.68888476000000 117.16370761000000 -535.40469410381297
1.25323038000000 1.76308860000000 103.00000000000000 -535.43206448285503
1.10623984000000 1.74425893000000 103.00000000000000 -535.46101302270597
0.81212687000000 1.72333609000000 103.00000000000000 -535.44362851506605
1.12812877000000 1.79232834000000 103.00000000000000 -535.45479101593196
0.97262954000000 1.68888476000000  82.51555301000000 -535.46221143369701
1.11443449000000 1.68888476000000 142.55700511000001 -535.42375102136396
0.96446195000000 1.93539607000000 106.37188797000000 -535.45678344226599
0.78082601000000 1.68888476000000  85.21091603000001 -535.41513962583292
0.96446195000000 1.54260551000000 141.85860794000001 -535.43639597635502
1.11604825000000 1.63555700000000 103.00000000000000 -535.45891558483402
1.05583113000000 1.68888476000000 135.40226340999999 -535.44330484760098
0.96446195000000 1.89970342000000 120.45549549000000 -535.45055714210605
0.95716289000000 1.68888476000000 122.10863114999999 -535.46584068540801
0.74665586000000 1.68888476000000  84.43759384000001 -535.38699018344300
0.96446195000000 1.67211211000000 120.49752607000001 -535.46768940777895
0.84037473000000 1.81962997000000 103.00000000000000 -535.44965503511116
0.97929929000000 2.10052189000000 103.00000000000000 -535.43884028686205
0.91454990000000 1.61428226000000 103.00000000000000 -535.47030239659398
1.15747150000000 1.63982932000000 103.00000000000000 -535.45174619293800
1.24502184000000 1.68888476000000 114.65704993999999 -535.43184607070316
0.96446195000000 1.81901346000000 119.74512210000000 -535.45962553975517
0.83557492000000 1.43670057000000 103.00000000000000 -535.40860589576198
0.96446195000000 1.77397734000000 115.62879986000000 -535.46698896172302
0.96446195000000 1.90526423000000  88.55669889000001 -535.46065211127996
1.10668410000000 1.68888476000000  89.56651020000000 -535.45692152696404
1.27074519000000 1.66248212000000 103.00000000000000 -535.42985806827517
0.96446195000000 1.63361534000000 129.76092581000000 -535.45797900524303
0.91901005000000 1.72716987000000 103.00000000000000 -535.47282807132297
1.06976553000000 1.68888476000000  96.10224447000000 -535.46625793230805
0.96446195000000 1.55266882000000 129.84877700999999 -535.45259971557596
0.79209693000000 1.69829825000000 103.00000000000000 -535.43326283546401
0.87327577000000 1.50607963000000 103.00000000000000 -535.44521294969104
0.96446195000000 1.71945240000000  84.99531466000001 -535.46637549655895
0.93338078000000 1.68888476000000  87.01441628000001 -535.46647765891896
0.79534612000000 1.68888476000000 101.09205818000000 -535.43513816938696
1.22584748000000 1.68888476000000 126.67200185999999 -535.42512283570090
0.86391990000000 1.68888476000000  90.43649549000000 -535.45847803065305
0.96446195000000 1.81686916000000 108.26920419000000 -535.46802758099898
0.80272138000000 1.70355790000000 103.00000000000000 -535.43927442551797
0.96446195000000 1.80131760000000 107.81677413000000 -535.46951771453917
1.40370846000000 1.67293627000000 103.00000000000000 -535.40267731779795
1.35337202000000 1.68888476000000  85.61275374000000 -535.40492970150501
0.96446195000000 1.75948066000000  79.78242676000001 -535.46058649071404
0.78679170000000 1.98862165000000 103.00000000000000 -535.40441790987904
1.00599790000000 2.08943051000000 103.00000000000000 -535.43915639955503
0.96446195000000 1.68853397000000 107.72342388000000 -535.47498707488398
0.96446195000000 1.47931079000000 124.75004602000000 -535.44276699357999
1.23246644000000 1.73416338000000 103.00000000000000 -535.43753706375298
0.80654463000000 1.68888476000000  98.45750980000000 -535.44074857611201
1.22501083000000 1.68888476000000 106.70943180000000 -535.43929031370999
1.12579858000000 1.68888476000000 130.17016458000001 -535.43983874160995
0.96446195000000 1.98760759000000 105.35375874000000 -535.45119399836403
0.80697444000000 1.68888476000000  76.56761849999999 -535.41689965320597
1.17799649000000 1.67324051000000 103.00000000000000 -535.44898143428804
0.90363489000000 1.68888476000000  92.80149991000000 -535.46833785407205
0.96446195000000 1.70405028000000 129.14285103000000 -535.45753618662093
1.11224783000000 1.68888476000000  68.84117008000000 -535.42646472591116
0.79781698000000 1.68888476000000  77.40910626000000 -535.41346507283697
1.02774095000000 1.68888476000000 126.28405735000000 -535.45817260018316
0.96446195000000 1.92605300000000  76.34206801000001 -535.45035073541601
0.96446195000000 1.79339116000000  68.77387499000000 -535.44291096631900
1.06630963000000 1.99329679000000 103.00000000000000 -535.44464552239594
1.35031298000000 1.66463315000000 103.00000000000000 -535.41335254694297
0.93113910000000 1.65264600000000 103.00000000000000 -535.47394073806493
1.18161620000000 1.66135740000000 103.00000000000000 -535.44799628338603
0.84367807000000 1.68888476000000  69.37104248000000 -535.41656183149996
0.82089829000000 1.90845701000000 103.00000000000000 -535.43266678640896
0.89361370000000 1.68888476000000  92.94090421999999 -535.46686140748091
1.14318105000000 1.68888476000000  66.60256020999999 -535.41764268797203
1.18328573000000 1.72295801000000 103.00000000000000 -535.44775288799599
0.96446195000000 1.80212410000000 123.59488253000001 -535.45721968227997
0.79046451000000 1.68888476000000  98.63544003000000 -535.43165874433896
1.08799723000000 1.68888476000000 104.73086106000000 -535.46482187783693
0.96446195000000 1.69102895000000 100.37362833000000 -535.47543851839498
0.96446195000000 1.59005736000000  85.96649422000000 -535.45617264455996
0.96446195000000 1.96618249000000  96.91808329000000 -535.45580361476891
0.96446195000000 1.81431134000000 121.51362238999999 -535.45831380541301
1.23991653000000 1.45152596000000 103.00000000000000 -535.39735805407804
1.12574705000000 1.95719618000000 103.00000000000000 -535.43985040613290
0.96446195000000 1.84566596000000 113.72842244000000 -535.46210331701695
1.09493162000000 1.69838729000000 103.00000000000000 -535.46386476252906
1.14671276000000 1.68888476000000  73.50384249000000 -535.43007390400896
1.16583222000000 1.68888476000000 103.90268790000000 -535.45144525375895
1.13185607000000 1.68888476000000  81.29015801000000 -535.44418036173693
0.84390889000000 1.80701218000000 103.00000000000000 -535.45198109475916
0.96446195000000 1.72323207000000  74.54744024000000 -535.45134615041104
1.03500792000000 1.68888476000000 113.67371009999999 -535.46844867352002
0.96446195000000 1.88474423000000 111.03672672000000 -535.45987306649397
0.85455870000000 1.68888476000000 102.35065939000000 -535.46102852720605
0.96446195000000 1.59484513000000  82.67351841999999 -535.45172997613702
1.28264774000000 1.53756959000000 103.00000000000000 -535.41426841068198
0.94538759000000 1.68888476000000  69.20168653000000 -535.43616326519100
1.31840478000000 1.52328336000000 103.00000000000000 -535.40397150329500
1.05213757000000 1.68888476000000 135.14712109000001 -535.44412412442398
1.22042088000000 1.65013977000000 103.00000000000000 -535.43984011347800
0.96446195000000 1.83741225000000 111.80173763000001 -535.46421590407601
1.31438715000000 1.53085109000000 103.00000000000000 -535.40643462313517
1.03703048000000 1.68888476000000  75.51378509000000 -535.44790527887801
0.83693024000000 1.68888476000000 111.82067653000000 -535.45305235506805
0.96446195000000 1.70909283000000 114.73353984000001 -535.47125005452199
1.19496072000000 1.68888476000000  86.23874728000000 -535.43809863661693
0.77920873000000 1.71407888000000 103.00000000000000 -535.42460076217901
0.96446195000000 2.05018291000000  90.61304355999999 -535.44629503623401
0.96446195000000 1.83161783000000 119.69149401999999 -535.45846940799504
0.96446195000000 1.53386676000000 114.12744839000000 -535.46134045667998
0.96446195000000 1.58372458000000 127.23482552999999 -535.45852417858703
0.94423529000000 1.68888476000000  90.23392549000000 -535.47011134018396
0.84199212000000 1.68888476000000  82.96088741000000 -535.44318552127095
1.23718921000000 1.68888476000000 100.93853401000000 -535.43715199425606
0.83637350000000 1.89492156000000 103.00000000000000 -535.44070326121198
0.67427139000000 1.76969838000000 103.00000000000000 -535.30423453436697
1.01288721000000 1.68888476000000  63.17342845000000 -535.42085853206493
0.92639136000000 1.68888476000000  86.63080386999999 -535.46552431815098
0.96446195000000 1.55131726000000  94.32493950999999 -535.45901115892298
0.96446195000000 1.69905492000000 137.23284891000000 -535.44677333277900
1.08758838000000 1.62015116000000 103.00000000000000 -535.46243795984401
0.96446195000000 1.53508306000000 132.09761087999999 -535.44768284779195
0.96446195000000 1.82905814000000  87.00174516000000 -535.46552721933097
0.96552386000000 1.81418031000000 103.00000000000000 -535.46999901502500
0.96446195000000 1.55310318000000 121.76841684000000 -535.46020306712001
0.93482421000000 1.76334593000000 103.00000000000000 -535.47250120423996
0.96446195000000 1.66900781000000  72.88098631000000 -535.44330165351516
0.96446195000000 1.52604205000000 101.42446825000000 -535.45866368849795
1.23775051000000 1.54325402000000 103.00000000000000 -535.42454194595916
0.96446195000000 1.84116974000000  84.69665540000000 -535.46320862452001
0.96446195000000 1.84128745000000 114.54467133000000 -535.46193385429603
1.29322280000000 1.68888476000000 111.20261015000000 -535.42368638107598
0.97961951000000 1.84065488000000 103.00000000000000 -535.46761846046400
1.19061695000000 1.68888476000000 105.57035833000000 -535.44643408796401
1.10718892000000 1.68888476000000  84.44207053000000 -535.45196989382202
1.43532186000000 1.68888476000000 117.33276531000000 -535.39179905814603
1.10318967000000 1.62440555000000 103.00000000000000 -535.46031877344296
0.96446195000000 1.82329105000000  91.68290257000000 -535.46830951322102
1.22463627000000 1.68888476000000  96.14989531000001 -535.43863312092901
0.96446195000000 1.67137754000000 102.46500521000000 -535.47546685804798
0.93579461000000 1.73800135000000 103.00000000000000 -535.47377369326000
0.96446195000000 1.65593531000000 124.66669764000000 -535.46380814385998
0.87526068000000 1.91759560000000 103.00000000000000 -535.45019407316602
0.99059429000000 1.68888476000000  84.31198879000000 -535.46412870387599
1.12311785000000 1.69916042000000 103.00000000000000 -535.45924424714997
0.96446195000000 1.80978098000000  83.17398869000000 -535.46345416053202
1.11364398000000 1.91281494000000 103.00000000000000 -535.44663153927399
1.01480848000000 1.68888476000000 139.70066466000000 -535.44124949473701
1.07400071000000 1.91590042000000 103.00000000000000 -535.45222616336798
0.97836319000000 1.68888476000000  81.73234927999999 -535.46106640608491
0.96446195000000 1.81460882000000 123.80771860999999 -535.45583822860499
0.85859636000000 1.73950169000000 103.00000000000000 -535.46098273480402
0.96446195000000 1.82128550000000 120.52165581000000 -535.45865609190400
1.15804522000000 1.68888476000000 130.59806277999999 -535.43351626025003
1.09971838000000 1.68888476000000 106.84932748999999 -535.46264303371095
0.81395861000000 1.49251145000000 103.00000000000000 -535.42088799634405
1.12818834000000 1.68888476000000 110.34425204999999 -535.45675367882995
1.14694018000000 1.68888476000000 117.63321704000001 -535.44905359147901
1.03493339000000 2.17699541000000 103.00000000000000 -535.42721052619299
1.09803529000000 1.68888476000000  79.86590793000001 -535.44759676090996
1.41370752000000 1.68888476000000 101.91999210000000 -535.40075090244090
0.83550419000000 1.68888476000000 105.78786158000000 -535.45437930876096
1.22073069000000 1.68888476000000 113.85529393000000 -535.43728334599291
0.96124704000000 1.86812440000000 103.00000000000000 -535.46514295191605
0.96446195000000 1.44375189000000  89.43526196000001 -535.41509479046795
0.96446195000000 1.59322078000000  85.51935980000000 -535.45605022078496
0.96446195000000 1.67760620000000 116.44500617999999 -535.47082883165001
1.15900629000000 1.68888476000000 112.03482246000000 -535.45038402877799
0.95457881000000 1.94537734000000 103.00000000000000 -535.45677912808196
0.96446195000000 1.74102432000000 120.40597993999999 -535.46515426049598
1.25635136000000 1.62580069000000 103.00000000000000 -535.43112539261404
0.86539253000000 1.80459724000000 103.00000000000000 -535.45878877479197
0.91380283000000 1.50440340000000 103.00000000000000 -535.45141813659802
1.24198709000000 1.61086543000000 103.00000000000000 -535.43293586167101
1.13695796000000 1.68888476000000 117.70661611000000 -535.45079794196397
0.96446195000000 1.64362173000000  83.87836578000000 -535.46050101680396
1.07526710000000 1.68888476000000 138.74848410000001 -535.43577770834202
1.13470737000000 1.68888476000000  95.57027194000000 -535.45578983785299
1.32209806000000 1.66793391000000 103.00000000000000 -535.41926905052605
0.89687567000000 1.69043297000000 103.00000000000000 -535.47067112598893
0.95480681000000 1.68888476000000 135.64658416000000 -535.44945479317516
1.12412423000000 1.68888476000000 100.30862614999999 -535.45893251697305
1.21675198000000 1.66688342000000 103.00000000000000 -535.44112624853994
0.96446195000000 1.79506507000000 111.67594669000000 -535.46804441332597
1.00109608000000 1.82515415000000 103.00000000000000 -535.46810912410501
0.81812247000000 1.68888476000000  78.27755864000000 -535.42572269466802
1.16215569000000 1.88220093000000 103.00000000000000 -535.44119840438896
0.96446195000000 1.62043024000000 120.40257054999999 -535.46706552874798
0.92039554000000 1.41930894000000 103.00000000000000 -535.41841553861002
0.96446195000000 1.68574450000000 104.37583481000000 -535.47557907395799
0.96446195000000 1.74517606000000  80.48690028999999 -535.46138863584997
0.96446195000000 1.56063088000000  76.89319356000000 -535.43217686382093
0.96446195000000 1.80020396000000 117.30565867000000 -535.46352796018596
0.75010381000000 1.68888476000000 104.92037381000000 -535.40221559209499
0.96446195000000 1.69267806000000  84.97073003000000 -535.46550635781398
0.90211790000000 2.00816303000000 103.00000000000000 -535.44487662465997
0.93683790000000 1.56983116000000 103.00000000000000 -535.46701996270201
0.96446195000000 1.70734730000000 127.61326337000000 -535.45924726005501
0.96446195000000 1.55195111000000 106.13111877000000 -535.46544054428296
1.09048478000000 1.68888476000000  75.55240003000000 -535.44197639558195
0.90651856000000 1.52554842000000 103.00000000000000 -535.45597172197802
0.95131379000000 1.59610653000000 103.00000000000000 -535.47091937673702
0.96446195000000 1.76600175000000  90.75933577000001 -535.47072689976096
0.97354681000000 1.68888476000000 112.74850528000000 -535.47286883704601
1.02175520000000 1.75372302000000 103.00000000000000 -535.47138556109098
0.96446195000000 1.76883576000000 103.94411146000000 -535.47297990904895
0.83299217000000 1.71436778000000 103.00000000000000 -535.45316066868702
0.96446195000000 1.61633018000000  86.74757175000001 -535.46125378897204
0.96446195000000 1.68904528000000 127.07581840000000 -535.46059123607404
0.86830020000000 2.09453381000000 103.00000000000000 -535.42754245017795
1.01052957000000 1.66573117000000 103.00000000000000 -535.47359193014097
0.97320610000000 1.68888476000000 112.79606183999999 -535.47284919174297
1.05304622000000 1.68888476000000 116.18097935999999 -535.46479940058703
1.04893605000000 1.63337531000000 103.00000000000000 -535.46855871802097
1.31464132000000 1.68888476000000 107.31079312000000 -535.42053795044205
1.00132935000000 1.68888476000000 129.32976651000001 -535.45665037505103
0.79559854000000 1.68888476000000  93.69872460000001 -535.43244521375198
1.07554794000000 1.68888476000000 108.08382501000000 -535.46594095119201
0.70584622000000 1.68888476000000 128.41054029000000 -535.33873288370717
0.78727020000000 1.68888476000000  75.27930204000000 -535.40276048335693
0.96446195000000 1.66415801000000 112.92023195000000 -535.47300495406603
0.96446195000000 1.75796138000000 111.56029010000000 -535.47077486152000
1.00418267000000 1.83641904000000 103.00000000000000 -535.46697441161098
1.38793888000000 1.68888476000000 114.40689195000000 -535.40275644918495
0.96446195000000 1.67403057000000  65.09147020000000 -535.42396641264395
0.92269316000000 1.76622176000000 103.00000000000000 -535.47139732106098
0.96446195000000 1.77536309000000  87.20709558000000 -535.46805870146795
0.73793827000000 1.49454263000000 103.00000000000000 -535.36784525040696
0.96446195000000 1.79741259000000  80.22969215000001 -535.46076972361300
1.19633766000000 1.42391849000000 103.00000000000000 -535.39332614323803
0.89255383000000 1.53838775000000 103.00000000000000 -535.45673652416804
0.96446195000000 1.67555604000000 100.87645427000000 -535.47536278775203
0.96446195000000 1.74773622000000 102.89769501000001 -535.47423256240495
0.96446195000000 1.66598753000000 108.91407896000000 -535.47463425410206
0.96562428000000 1.68888476000000 100.23154051000000 -535.47540603262996
1.03451058000000 1.60380827000000 103.00000000000000 -535.46784005246002
0.96446195000000 1.75072609000000  71.27584007999999 -535.44646134137497
0.96446195000000 1.60949223000000 104.37079153000001 -535.47254613396683
0.91294101000000 1.68888476000000 107.13455655000000 -535.47239918578703
0.70178476000000 1.71829738000000 103.00000000000000 -535.34829813341400
0.90231259000000 1.68888476000000 116.28198619000000 -535.46673293989204
0.96446195000000 1.73027836000000 101.86300788000000 -535.47496022181099
1.15003807000000 1.68888476000000 107.87371174000000 -535.45369514948800
0.96446195000000 2.07070578000000 107.32090291999999 -535.44046368295801
0.96446195000000 1.71161709000000 127.48668089000000 -535.45919760336596
0.91366944000000 1.68888476000000 113.82589684000000 -535.46973853364398
1.06721379000000 1.78863953000000 103.00000000000000 -535.46442283067097
1.10158033000000 1.68888476000000  77.84529523000000 -535.44411064698500
0.96446195000000 1.82522280000000 102.91448726000000 -535.46910996504505
1.18375683000000 1.68888476000000 126.09160145000000 -535.43408211502492
1.02733648000000 1.68888476000000 110.80980409000000 -535.47067492864096
0.96446195000000 1.91698100000000 105.97098020000000 -535.45902252987298
1.13290516000000 1.68888476000000 135.61566350000001 -535.43118793839199
1.26741875000000 1.62220165000000 103.00000000000000 -535.42857721418704
0.95385636000000 1.96473422000000 103.00000000000000 -535.45454820928092
0.96446195000000 1.63412477000000 132.27832920000000 -535.45488063950700
0.71479938000000 1.71699067000000 103.00000000000000 -535.36487348505295
0.95452387000000 1.69343257000000 103.00000000000000 -535.47552707291504
1.16062320000000 1.68888476000000 121.27069458000000 -535.44343278056704
1.11721086000000 1.68888476000000  72.66925506000000 -535.43316741614683
0.96446195000000 1.54881686000000 138.48408104000001 -535.44166065541197
1.11474522000000 1.68888476000000 118.82151225000000 -535.45374594713292
0.96446195000000 1.68621320000000  87.17937193000000 -535.46766003452603
1.01931029000000 1.64377182000000 103.00000000000000 -535.47213327139798
1.12277160000000 1.68888476000000  69.36257864000000 -535.42609349966597
0.96446195000000 1.68977182000000  77.09021777000000 -535.45374634527900
1.30179044000000 1.68888476000000  93.41824875000000 -535.42134790468003
0.96446195000000 1.69870891000000 123.35124925000000 -535.46432774770699
0.96446195000000 1.92128539000000 105.43523801000001 -535.45876896390803
1.10903518000000 1.68888476000000  78.50616090000000 -535.44399460889804
0.96446195000000 1.70395953000000 114.23758438999999 -535.47173554158496
0.96446195000000 1.74796859000000  84.78920755999999 -535.46637648398803
0.97491916000000 1.68888476000000 125.73712345000000 -535.46198758740093
1.02247540000000 1.68888476000000  60.39605778000000 -535.41220238705705
0.96446195000000 1.84520140000000  80.13156785000000 -535.45895216441397
0.84422668000000 1.68888476000000 103.03048642000000 -535.45771405872995
1.01095992000000 1.68888476000000 102.35861448000000 -535.47382797128716
0.97048750000000 1.52092027000000 103.00000000000000 -535.45812899518603
1.11054181000000 1.77841878000000 103.00000000000000 -535.45862214006297
1.10552863000000 1.68888476000000 105.95848279000001 -535.46189728803597
1.08779699000000 1.66573730000000 103.00000000000000 -535.46465930422801
0.74522380000000 1.86472214000000 103.00000000000000 -535.38604383282200
0.96446195000000 1.67121298000000  72.30697843000000 -535.44228039489292
0.96446195000000 1.69280758000000  92.47519653000001 -535.47232242977691
0.83895340000000 1.95842614000000 103.00000000000000 -535.43444396135806
1.21755861000000 1.68888476000000 108.93698567000000 -535.44018962801499
0.96446195000000 1.84783178000000 109.59199921000000 -535.46450998265300
0.96446195000000 1.72556489000000  96.42881084000000 -535.47426317609199
0.96446195000000 1.94357385000000 125.02157590000000 -535.44073996129998
0.96446195000000 1.96713668000000 119.74374894000000 -535.44356830097104
1.00419311000000 1.61198491000000 103.00000000000000 -535.47117443929994
0.84781629000000 1.68888476000000 119.80050747000000 -535.45154640944497
1.34286253000000 1.54806251000000 103.00000000000000 -535.40404307217102
1.06589150000000 1.68888476000000 108.62612485000000 -535.46709482985000
1.31811315000000 1.68888476000000  82.83447735999999 -535.40950825142295
0.75161873000000 1.68888476000000  78.41514863000000 -535.38194696255005
1.44504725000000 1.59735260000000 103.00000000000000 -535.39076491633898
0.96446195000000 1.94599513000000  98.37118294000000 -535.45789184858404
1.16604673000000 1.89424411000000 103.00000000000000 -535.43928685500805
1.00031668000000 1.57526281000000 103.00000000000000 -535.46728169924199
0.96446195000000 1.58380540000000  81.35878952000000 -535.44722452716803
1.09916429000000 1.64748449000000 103.00000000000000 -535.46228275042199
0.99450899000000 1.68888476000000  89.48484247000000 -535.46929349510697
0.99496317000000 1.80913944000000 103.00000000000000 -535.46970234210005
0.81526699000000 1.95762233000000 103.00000000000000 -535.42430108221095
0.96491781000000 1.67135836000000 103.00000000000000 -535.47549299457103
0.81472831000000 1.68888476000000  64.72058033000000 -535.39063839446999
0.77345432000000 1.68888476000000  98.17058879000000 -535.42015254072999
0.85382286000000 1.68888476000000  97.51211800000000 -535.45979867726203
1.33766955000000 1.68888476000000  85.85878176000000 -535.40841291253196
0.96446195000000 1.59692753000000  97.64042743000000 -535.46905626091200
0.96446195000000 2.06069161000000  90.29763153000000 -535.44509598955096
1.10595161000000 2.00929630000000 103.00000000000000 -535.43719134255900
0.83971957000000 1.44071601000000 103.00000000000000 -535.41196810484598
0.96446195000000 1.55746830000000 144.52159839999999 -535.43434109737802
1.01982148000000 1.68888476000000  82.38509535000000 -535.46001713426597
0.96446195000000 1.73524695000000 116.75474981000001 -535.46862619203000
0.96446195000000 1.61518859000000  98.95108370000000 -535.47165712626804
0.96446195000000 1.89606064000000  90.04393448000000 -535.46202525342505
1.06346344000000 1.68888476000000 113.69646990000000 -535.46509085083517
1.17836859000000 1.65470074000000 103.00000000000000 -535.44841086632596
0.96446195000000 1.72543836000000 143.73525028000000 -535.43524979931203
1.17752246000000 1.68888476000000 127.10124587000000 -535.43412967649397
0.96446195000000 1.55369855000000 110.30947501000000 -535.46566612281697
0.96446195000000 1.81031798000000  67.77054772000000 -535.44123725093198
0.80470600000000 1.68888476000000 117.99662644000000 -535.43472451970797
1.03256918000000 1.68888476000000 128.78589657000001 -535.45474764079597
1.10674335000000 1.68888476000000  94.17421697000000 -535.45989085799499
0.75579918000000 1.68888476000000 110.99830178000001 -535.40563586688802
1.00259815000000 1.58640914000000 103.00000000000000 -535.46861006198105
0.93123743000000 1.68888476000000 147.91789761999999 -535.42999591824901
1.15687354000000 1.65110123000000 103.00000000000000 -535.45238124749801
0.96446195000000 1.54601075000000 109.65656342000000 -535.46446602880496
0.88372967000000 1.68888476000000  89.46816640000000 -535.46230947585605
1.14948000000000 1.68888476000000  95.55977799999999 -535.45311991445999
1.03092308000000 1.68888476000000  83.51303602999999 -535.46054066654006
1.37121143000000 1.62685684000000 103.00000000000000 -535.40748624834896
0.88672000000000 2.03611008000000 103.00000000000000 -535.43879457798005
0.94537973000000 1.52806813000000 103.00000000000000 -535.45958545649296
1.40324561000000 1.68888476000000  93.44558567000000 -535.40036103872899
0.96446195000000 1.80118802000000  71.24624301000000 -535.44766429460299
1.13298904000000 1.68888476000000  78.76485596000001 -535.44056728049202
0.96446195000000 1.72953081000000  76.66885764000000 -535.45533939299696
0.96446195000000 1.61596209000000  68.53193840000000 -535.42330624204703
0.96446195000000 1.77709363000000  82.88183515000000 -535.46410262043696
1.50086580000000 1.68888476000000 109.40853140999999 -535.38345870707406
0.70623880000000 1.68888476000000 100.52473145000000 -535.35459275291691
0.89748897000000 1.67509919000000 103.00000000000000 -535.47072055281399
0.83013656000000 1.98318537000000 103.00000000000000 -535.42798418331802
1.05641791000000 1.84601870000000 103.00000000000000 -535.46132338631696
0.96446195000000 1.86730460000000 111.02650260999999 -535.46171752882697
1.06614104000000 1.68410083000000 103.00000000000000 -535.46801448607403
1.17708510000000 1.68888476000000 110.49106383000000 -535.44764577880198
1.01523126000000 1.68888476000000 127.72846470000000 -535.45759852962794
0.80919746000000 1.68888476000000  66.05285777000000 -535.39194356949997
0.83303809000000 1.62733090000000 103.00000000000000 -535.45199459510093
1.06357118000000 1.52023609000000 103.00000000000000 -535.45053972783705
0.86450002000000 1.68888476000000  62.99807939000000 -535.40443361498001
1.11608482000000 1.72649779000000 103.00000000000000 -535.45998264781895
1.02376223000000 1.68888476000000 125.24376942000001 -535.45970176764195
0.96446195000000 1.54846536000000 116.18165024000000 -535.46300361301917
0.96446195000000 1.83381532000000  92.31216464000001 -535.46781698513917
0.96446195000000 1.53426239000000  87.29927649000000 -535.44586792179803
1.29206393000000 1.68888476000000 105.50642116000000 -535.42559228359517
1.05626567000000 1.68888476000000  81.32877607000000 -535.45510479084601
0.97672991000000 1.68888476000000 107.58637610000000 -535.47487667170003
0.96446195000000 1.53040089000000  84.20115751000000 -535.43934309532801
1.02424265000000 1.63888768000000 103.00000000000000 -535.47145631961700
1.05897994000000 1.68888476000000 124.36787443999999 -535.45678280955406
1.01822347000000 1.68888476000000 120.93547700000001 -535.46452878067691
0.96446195000000 1.62091769000000  97.22890190000000 -535.47134766677004
1.26817000000000 1.71216113000000 103.00000000000000 -535.43063946726795
0.95759554000000 1.68888476000000 128.92749273999999 -535.45837168104492
1.25123901000000 1.68888476000000 106.94979881000000 -535.43383258846700
1.06094041000000 1.68888476000000  93.48836061999999 -535.46616326285096
0.90957544000000 1.68888476000000  88.65207494000001 -535.46579742000995
0.95885000000000 1.68888476000000  78.62352204000000 -535.45621697796105
1.04315346000000 1.79547360000000 103.00000000000000 -535.46686067891517
1.00320415000000 1.82984866000000 103.00000000000000 -535.46759565353398
0.96446195000000 1.56786999000000 137.58819901000001 -535.44480367921199
0.99456759000000 1.68888476000000 132.72623872000000 -535.45264750412491
1.26516957000000 1.68888476000000  88.37600556000000 -535.42570005236701
0.89755001000000 1.66208421000000 103.00000000000000 -535.47051095336803
0.98695933000000 1.68888476000000 115.01461931999999 -535.47114158659201
0.96446195000000 1.61340374000000 146.29762199000001 -535.43480181324799
0.96446195000000 1.97237450000000 119.25969046000000 -535.44341894301294
0.83016281000000 1.68888476000000  67.40098370000000 -535.40582777428097
0.81794910000000 1.71974667000000 103.00000000000000 -535.44654463875690
1.04733088000000 1.68888476000000 131.55552458000000 -535.44961954165296
1.01708933000000 1.68888476000000  92.36711181000000 -535.47003395322599
0.96446195000000 1.69926107000000  93.88017300000000 -535.47326212725000
0.87618213000000 1.53000888000000 103.00000000000000 -535.45179792194006
1.07996540000000 1.63340397000000 103.00000000000000 -535.46446717993001
1.15827149000000 1.49440883000000 103.00000000000000 -535.42816197386799
0.96446195000000 1.85167885000000  91.68602478000000 -535.46627927480404
0.96446195000000 1.81254528000000  92.58254789999999 -535.46933467914891
1.32803900000000 1.68888476000000 120.54685583000000 -535.41045963909403
1.17882247000000 1.68888476000000 102.88493085000000 -535.44898653496091
1.03422582000000 1.68888476000000  81.71196836999999 -535.45790506263097
0.99923865000000 1.89980568000000 103.00000000000000 -535.46113274262598
0.93045909000000 1.58763886000000 103.00000000000000 -535.46902517791898
0.96446195000000 1.62847345000000 107.19008640000000 -535.47381233129397
0.96446195000000 1.60882531000000  60.51910141000000 -535.39405242144505
1.03450953000000 1.56365526000000 103.00000000000000 -535.46269248321903
1.10509041000000 1.68104555000000 103.00000000000000 -535.46221976164202
1.48791785000000 1.68888476000000 111.27791003999999 -535.38519125398602
0.83975094000000 1.51421255000000 103.00000000000000 -535.43766002607299
0.96446195000000 1.61914578000000  75.54423324000000 -535.44192578974400
0.95046641000000 1.71563524000000 103.00000000000000 -535.47512122083401
0.96446195000000 1.77607592000000 114.76522495000000 -535.46747361680298
0.90459393000000 1.68888476000000  75.46597807000001 -535.44591879050893
0.90660057000000 1.68888476000000 100.88694331000001 -535.47193297342005
1.02826379000000 1.73705279000000 103.00000000000000 -535.47149986954196
1.21375089000000 1.54315788000000 103.00000000000000 -535.42936313645805
0.96446195000000 1.79253002000000 106.13553324999999 -535.47082706781691
0.96446195000000 1.73985011000000  59.20777573000000 -535.41487551406499
0.96446195000000 1.68690912000000  89.93759556000001 -535.47027150203803
1.25572477000000 1.68068056000000 103.00000000000000 -535.43333145813801
0.96446195000000 1.83942172000000  78.89188083000001 -535.45788897542604
0.96446195000000 1.74290667000000  76.78981243000000 -535.45599163898601
0.96446195000000 1.71344974000000  99.23533120000000 -535.47513474122695
1.21475630000000 1.68888476000000  79.27280027000000 -535.42636393244095
0.96446195000000 1.72729621000000 108.43133133000001 -535.47380499927499
0.73930038000000 1.82380741000000 103.00000000000000 -535.38442028958093
0.98043882000000 1.68888476000000 117.89883301000000 -535.46930243187296
0.96446195000000 1.67925684000000  94.05348046000000 -535.47295257711596
0.84533202000000 1.68888476000000  98.60753635000000 -535.45741057549901
1.20127670000000 1.55587938000000 103.00000000000000 -535.43417485412999
1.09898613000000 1.68888476000000 127.66461128000000 -535.44734942297691
0.91722772000000 1.71158586000000 103.00000000000000 -535.47306623119096
1.09691033000000 1.89672998000000 103.00000000000000 -535.45092314287604
1.00142561000000 1.68888476000000 105.79198301000000 -535.47422603976099
0.91520379000000 1.41559623000000 103.00000000000000 -535.41592592724896
1.18934827000000 1.54590625000000 103.00000000000000 -535.43472253085497
1.15771371000000 1.68888476000000 103.31226945000000 -535.45301274296105
0.85975736000000 1.88432440000000 103.00000000000000 -535.44973686602395
0.96446195000000 1.65700905000000 125.78839677000001 -535.46262137276801
0.96446195000000 1.84292580000000  76.07738558000000 -535.45438752091400
0.87839058000000 1.62216753000000 103.00000000000000 -535.46515868164204
0.96446195000000 1.88818202000000  79.29091604000000 -535.45573164562802
0.96446195000000 1.56458290000000 129.41587978000001 -535.45443408159201
0.95551938000000 1.77497920000000 103.00000000000000 -535.47266989206105
1.21267571000000 1.66796604000000 103.00000000000000 -535.44197887739483
1.10474598000000 1.85587660000000 103.00000000000000 -535.45364392156898
1.01797306000000 1.77411550000000 103.00000000000000 -535.47061363078296
0.96446195000000 1.73699184000000 118.22761361000001 -535.46733487817198
1.09736276000000 1.68888476000000 135.06673115999999 -535.43789622731197
0.96446195000000 1.47287751000000 105.06286827000000 -535.44486592491296
0.69242663000000 1.68888476000000  89.49326357000000 -535.32956229310605
0.96723788000000 1.68888476000000 112.56709227000000 -535.47304035349498
1.21063393000000 1.47166170000000 103.00000000000000 -535.41074428110403
0.77116258000000 1.68888476000000  77.32400036999999 -535.39575263111601
0.96446195000000 1.44569047000000 104.71964644000001 -535.43403630151101
0.91709738000000 2.02311355000000 103.00000000000000 -535.44511302988099
0.96446195000000 1.69033885000000  70.56884516000000 -535.44046733998300
0.96446195000000 1.70157578000000  96.07862899000000 -535.47430540737116
0.97637983000000 1.68888476000000  95.66154272000000 -535.47389573862199
0.96446195000000 1.48234149000000  78.91460305000000 -535.40981497037899
0.96446195000000 1.51912909000000  96.84656330000000 -535.45368708047499
0.91105455000000 1.71698292000000 103.00000000000000 -535.47224910992304
0.82019893000000 1.68888476000000 119.79972164000000 -535.44086252016700
0.96446195000000 1.61641032000000  93.29296519000000 -535.46824657488901
0.96446195000000 1.71532608000000 119.17002334000000 -535.46761995125803
0.81154231000000 1.57193622000000 103.00000000000000 -535.43705945535100
0.82817160000000 1.68888476000000 100.51741613000000 -535.45138168881999
0.96446195000000 1.73800509000000 102.68574638000000 -535.47465567767597
1.39196639000000 1.68888476000000 120.37954747000001 -535.39786401788797
0.95459184000000 1.68888476000000  78.49233018000000 -535.45588153246797
0.96446195000000 1.69814739000000  96.62870433000001 -535.47449948587405
1.02408774000000 1.68888476000000  84.32376893000000 -535.46211200783205
0.95969103000000 1.78293190000000 103.00000000000000 -535.47223186053998
1.00743054000000 1.63521818000000 103.00000000000000 -535.47260919441999
0.96446195000000 1.75825682000000  67.43785244000000 -535.43871167164298
1.07275905000000 1.68888476000000 118.17206744000001 -535.46073086448996
0.80378282000000 1.43426095000000 103.00000000000000 -535.39323404936204
0.96446195000000 1.77359061000000  93.24990927000000 -535.47165206860996
1.14457295000000 1.68888476000000 106.78516782000000 -535.45497837950893
0.96446195000000 1.59989175000000  88.02855704000000 -535.46061221329705
0.94369709000000 1.68888476000000  97.04313252000000 -535.47412414403902
0.91148055000000 1.56019996000000 103.00000000000000 -535.46341739886896
1.38800109000000 1.70992341000000 103.00000000000000 -535.40577777197996
0.96446195000000 1.71681598000000  94.55462780000001 -535.47364271263598
1.23400555000000 1.61211476000000 103.00000000000000 -535.43468317499605
0.82112525000000 1.68888476000000 108.58481972000000 -535.44781171428701
0.79427575000000 1.68888476000000  69.44187153999999 -535.39319594589199
0.96446195000000 1.90741658000000  83.07782345000000 -535.45747355125798
1.05066099000000 1.68888476000000 113.79280824999999 -535.46663679523499
0.96446195000000 1.71674242000000  76.68789180000000 -535.45478334696895
0.79738976000000 1.68888476000000  99.38003286000000 -535.43598283406891
0.96446195000000 1.85864190000000  98.35989025000001 -535.46672264060601
0.99132333000000 1.71246602000000 103.00000000000000 -535.47477730816195
1.53204863000000 1.70956778000000 103.00000000000000 -535.37838686861301
1.18839131000000 1.68888476000000 108.55417222000000 -535.44615417825605
0.96446195000000 1.63459538000000  98.03565072000001 -535.47281638066795
1.14131039000000 1.89256755000000 103.00000000000000 -535.44398106011693
0.83767630000000 1.68888476000000 114.62057077999999 -535.45181331787103
1.29900016000000 1.61530212000000 103.00000000000000 -535.42149226480296
1.27319378000000 1.63772637000000 103.00000000000000 -535.42835039947204
0.84378347000000 1.95271732000000 103.00000000000000 -535.43689105377996
0.92766399000000 2.04364421000000 103.00000000000000 -535.44374809204396
0.96446195000000 1.81420462000000  77.90759552999999 -535.45756823946203
0.96446195000000 1.68940299000000  89.94789323000001 -535.47036183378896
0.96446195000000 1.53842133000000 118.92282627000000 -535.45991515401204
0.96446195000000 1.74270044000000  70.17478257000000 -535.44381108337598
0.95366968000000 1.96319179000000 103.00000000000000 -535.45472029003099
0.77099895000000 1.68718674000000 103.00000000000000 -535.41925147611801
0.81855326000000 1.75441111000000 103.00000000000000 -535.44530978099692
1.08124455000000 1.68888476000000 140.54910665000000 -535.43215228733698
1.02221083000000 1.68888476000000 120.36208803000000 -535.46470522876905
0.96446195000000 1.46318107000000  87.79353989000001 -535.42130682522895
1.15648119000000 1.68888476000000  93.89392067999999 -535.45105950600498
0.87374585000000 1.69406212000000 103.00000000000000 -535.46614191331298
0.99724084000000 1.68888476000000 102.71912926000000 -535.47470900409201
1.00715154000000 1.68888476000000  71.36310613000001 -535.44166345018800
1.14390492000000 1.84975775000000 103.00000000000000 -535.44754916795796
0.96446195000000 1.61414711000000 126.74384370000000 -535.46085139175102
1.07810344000000 1.57603484000000 103.00000000000000 -535.45911372719002
0.76827354000000 1.63770446000000 103.00000000000000 -535.41633585646400
0.84846908000000 1.80941828000000 103.00000000000000 -535.45334213538899
0.94130620000000 1.68888476000000  78.85506965000000 -535.45589705591999
0.85920311000000 1.68888476000000 115.14790101000000 -535.45849413047597
0.95426552000000 1.68888476000000 111.02803358000000 -535.47371179526283
0.96446195000000 1.62972037000000  91.99004374000000 -535.46847308790996
0.96446195000000 1.80800700000000  73.42691347000000 -535.45131774981598
0.96446195000000 1.96335291000000 126.69158664000000 -535.43657543701295
1.17823976000000 1.64995001000000 103.00000000000000 -535.44825134459700
0.96446195000000 1.62409494000000  67.59817285000000 -535.42229290497801
0.96446195000000 1.94789776000000  82.97800798999999 -535.45403032215995
1.20358088000000 1.64316334000000 103.00000000000000 -535.44293402188998
0.96446195000000 1.84016058000000  82.47211249999999 -535.46143642083598
1.33492585000000 1.68888476000000 118.63446005999999 -535.41061018998403
1.39410885000000 1.80750687000000 103.00000000000000 -535.40001662144402
0.96446195000000 2.16141485000000 111.55380513999999 -535.42786841019097
1.11350460000000 1.62037759000000 103.00000000000000 -535.45832844784002
0.93125953000000 1.68888476000000  89.80094029999999 -535.46899417170300
0.96446195000000 1.68830611000000  73.82264589000000 -535.44737087910505
0.96446195000000 1.62913582000000  72.76097738000000 -535.43718291502501
1.37548007000000 1.68888476000000 112.88130103000000 -535.40603891285400
1.03166123000000 1.68888476000000 112.48319391000000 -535.46944838565696
1.06703050000000 1.57763650000000 103.00000000000000 -535.46087820053799
1.07006024000000 1.68888476000000 103.85439909000000 -535.46747378225916
0.96446195000000 1.79035206000000  64.47788305000000 -535.43348601561399
1.09679297000000 1.68888476000000 112.67002599999999 -535.46085689508197
1.07980837000000 1.44448710000000 103.00000000000000 -535.42287844540897
0.89228505000000 1.97845471000000 103.00000000000000 -535.44673843127396
1.11325493000000 1.68888476000000 130.35272251000001 -535.44172511937995
0.96446195000000 1.88508809000000 107.05578228000000 -535.46199055402099
0.91980853000000 1.53977361000000 103.00000000000000 -535.46051947249498
1.00609713000000 1.68888476000000  92.60366320000000 -535.47097037188598
1.14664526000000 1.68888476000000  78.03238607999999 -535.43721334817701
0.96446195000000 1.89046522000000 114.89592207000000 -535.45653008439399
1.05428059000000 1.68888476000000 107.11038772000001 -535.46901192733299
0.98428260000000 1.68888476000000 102.42764905999999 -535.47527657497301
1.01612753000000 1.68888476000000  92.96607843000000 -535.47048559058805
0.96446195000000 1.56541082000000  79.02591182000000 -535.43830460405502
1.09635982000000 1.68888476000000  92.67495054000000 -535.46070188454598
1.44785370000000 1.68888476000000 119.94263943999999 -535.38760116813000
0.96446195000000 1.75978974000000  84.48673324000001 -535.46598829138100
0.96446195000000 1.51062098000000 143.13632996000001 -535.42981999450092
0.73767924000000 1.68888476000000 105.76968801000000 -535.39044684320800
1.04410132000000 1.68888476000000 106.28054869000000 -535.47039107522403
0.78334597000000 1.68888476000000  93.04746102000000 -535.42439450174197
1.11485811000000 1.83122617000000 103.00000000000000 -535.45414399819799
0.86013787000000 1.68888476000000 117.84620199000000 -535.45685752464897
0.86974990000000 1.68888476000000  79.29821815000000 -535.44597759289104
0.96446195000000 1.49658016000000  79.61940251000000 -535.41761137772801
1.09358235000000 1.90525874000000 103.00000000000000 -535.45055261683797
0.74739849000000 1.72609871000000 103.00000000000000 -535.39887465580898
0.96446195000000 1.60485730000000 118.31758927000000 -535.46780333535298
0.96446195000000 1.83630752000000  79.50048753000000 -535.45868679156501
1.20727928000000 1.68888476000000 113.04560374000000 -535.44045167776301
1.07195734000000 1.80622075000000 103.00000000000000 -535.46257176242091
0.80792139000000 1.68888476000000  74.41083356999999 -535.41291839095800
1.32195139000000 1.68888476000000 111.95553955000000 -535.41739470109803
1.02099043000000 1.68738223000000 103.00000000000000 -535.47303279203504
0.95051806000000 1.68888476000000 106.68003688000000 -535.47505874225692
0.92303061000000 1.89182892000000 103.00000000000000 -535.46074534376498
0.96446195000000 1.57329739000000 127.31866451000000 -535.45752895383498
1.13728471000000 1.68888476000000 108.70486901000000 -535.45575773630901
0.96446195000000 1.96275016000000 124.44540508999999 -535.43921577961100
0.96446195000000 1.59457879000000 135.85333449000001 -535.44898338099097
0.96446195000000 1.76946639000000  87.37545320000000 -535.46835162230491
1.03731324000000 1.94628807000000 103.00000000000000 -535.45322723947402
0.78713819000000 1.93172258000000 103.00000000000000 -535.41146028355604
0.93599096000000 1.68888476000000 108.47358590000000 -535.47399071174004
0.90586026000000 1.68888476000000  99.16841219000000 -535.47150838347295
1.23419707000000 1.57858426000000 103.00000000000000 -535.43099521483691
0.95854294000000 1.68888476000000  89.40461637999999 -535.46982598186196
0.75041096000000 1.68888476000000 104.22680540000000 -535.40252909629805
1.38293652000000 1.68888476000000 108.43028024000000 -535.40623798514298
0.81067517000000 1.68888476000000  61.13329469000000 -535.37640717811200
1.04336634000000 1.50466433000000 103.00000000000000 -535.44894119125195
0.96446195000000 1.86553874000000  94.49898159999999 -535.46584161409999
1.07131112000000 1.68888476000000 109.11162955000000 -535.46619653734092
0.96446195000000 1.76055341000000 101.77478691000000 -535.47370712054396
0.96446195000000 1.77285938000000  75.26567574000001 -535.45415235260498
0.96446195000000 1.70005067000000  75.67735221000000 -535.45195660567799
0.96446195000000 1.72594208000000  76.72700685000000 -535.45528588458205
0.96446195000000 1.75323847000000 108.99452610000000 -535.47232380520200
0.96446195000000 1.69284944000000  87.07399001000000 -535.46781882372602
0.90551307000000 1.68888476000000  87.06822575000000 -535.46365707771599
0.93965624000000 1.71832898000000 103.00000000000000 -535.47463122782096
0.96446195000000 1.69059352000000  82.06978035000000 -535.46168417270098
0.96446195000000 1.80813111000000 114.32062797000000 -535.46519122952498
0.76603184000000 1.79453444000000 103.00000000000000 -535.41043868873896
0.82312657000000 1.68888476000000 116.50853334000000 -535.44470965334096
1.08545506000000 1.99284293000000 103.00000000000000 -535.44212861700703
1.05175279000000 1.68888476000000 126.44638232000000 -535.45538730747398
1.20560701000000 1.65119220000000 103.00000000000000 -535.44288233449504
0.93479944000000 1.57141445000000 103.00000000000000 -535.46714124692505
0.89579934000000 1.70450092000000 103.00000000000000 -535.47035576442397
0.96446195000000 1.86102987000000  84.90680517000000 -535.46212037483292
1.22972459000000 1.68888476000000 106.76582552000001 -535.43831263343202
0.95104189000000 1.79244798000000 103.00000000000000 -535.47140748020502
1.08751011000000 1.68888476000000  81.17738022000000 -535.45090628622893
0.71571723000000 1.83836238000000 103.00000000000000 -535.35730187505601
1.02067603000000 1.74889756000000 103.00000000000000 -535.47169714729796
0.72950850000000 1.86669527000000 103.00000000000000 -535.37004589848698
1.34852352000000 1.68888476000000 109.47999618999999 -535.41291501886303
0.96446195000000 1.81463109000000 116.74297448999999 -535.46271982759799
0.88295488000000 1.58967548000000 103.00000000000000 -535.46311934118091
0.80659737000000 1.68888476000000  72.24526320000000 -535.40728017679999
0.96446195000000 1.69935512000000 100.62340731000000 -535.47546596069503
1.07814222000000 1.60175638000000 103.00000000000000 -535.46219857688800
0.97315550000000 1.79369393000000 103.00000000000000 -535.47149628712100
0.96446195000000 1.92862420000000 118.43433041999999 -535.44923086713698
0.96446195000000 1.72509186000000  85.21035264000000 -535.46669643339499
0.97362383000000 1.68888476000000 109.71235313000000 -535.47425564278296
0.78603554000000 1.68888476000000 100.37363916000000 -535.42930584118596
0.87780413000000 1.71797244000000 103.00000000000000 -535.46662901664695
1.02704164000000 1.82670680000000 103.00000000000000 -535.46608157612604
0.87534421000000 1.60276322000000 103.00000000000000 -535.46289523901805
0.96446195000000 1.69561642000000 112.24964407000000 -535.47309055002097
0.96446195000000 1.65013448000000 103.08912827000000 -535.47492350709899
0.74023332000000 1.74524288000000 103.00000000000000 -535.39121783141104
0.96446195000000 1.80174211000000 113.93735608999999 -535.46601653478501
0.89770306000000 1.68888476000000  78.27965555000000 -535.45009726418198
0.96446195000000 1.95351512000000 109.73905212000000 -535.45293855038096
1.03181650000000 1.86696690000000 103.00000000000000 -535.46203781383292
1.24219386000000 1.82943691000000 103.00000000000000 -535.43000543749997
0.96446195000000 1.70700214000000  85.89562586000000 -535.46704930229600
1.26457032000000 1.67945284000000 103.00000000000000 -535.43147480149196
0.96446195000000 1.57445458000000  92.12369748000000 -535.46124998605399
1.05029018000000 1.68888476000000  67.11275946000001 -535.42926322480696
0.96446195000000 1.59048318000000  95.32741957000000 -535.46667690824404
0.96446195000000 1.88138944000000 104.32748862000000 -535.46344890172099
0.96446195000000 1.74897503000000  97.15472969000000 -535.47384102478804
1.17563838000000 1.68888476000000  81.30343492000000 -535.43641170922695
0.86175964000000 1.80689102000000 103.00000000000000 -535.45761213871697
1.02141005000000 1.68888476000000 109.64224478000000 -535.47169027091900
1.06772404000000 1.68888476000000  95.46400688000000 -535.46626644731100
0.93689309000000 1.81112819000000 103.00000000000000 -535.46937644200898
1.00858823000000 1.73045884000000 103.00000000000000 -535.47332848174403
1.16306489000000 1.70532262000000 103.00000000000000 -535.45195273598699
0.96446195000000 1.78523364000000  92.78052716000001 -535.47093020736804
0.82279729000000 1.64208480000000 103.00000000000000 -535.44851664802491
1.22284478000000 1.70066965000000 103.00000000000000 -535.44015917791296
0.96446195000000 1.77089985000000 100.00156094000000 -535.47319736243901
1.25990429000000 1.68888476000000  82.30044684000001 -535.42096015806203
1.30801081000000 1.68888476000000 104.93504469000000 -535.42233374645900
0.95017619000000 1.68888476000000 126.00249925000000 -535.46165997639298
0.96446195000000 1.80353776000000 105.21984383000000 -535.47028046164496
0.97587038000000 1.72287438000000 103.00000000000000 -535.47502993634703
0.89803370000000 1.68888476000000  71.96057574000000 -535.43730512006698
0.96446195000000 1.90854602000000  88.73968755000000 -535.46043237251297
0.96446195000000 1.59920174000000 139.89437201999999 -535.44368480922299
1.02122600000000 1.68888476000000 118.62927947000000 -535.46627634121398
0.94662797000000 1.68888476000000  95.90875892000000 -535.47378073780396
1.00429987000000 1.85992827000000 103.00000000000000 -535.46483281264500
0.92631684000000 1.81566267000000 103.00000000000000 -535.46824392032602
0.96446195000000 1.88306371000000  91.45963906999999 -535.46362044841305
1.12163924000000 1.68888476000000  96.99461340000001 -535.45859130913595
0.96446195000000 1.60156840000000  77.29581527000001 -535.44253043559695
0.96446195000000 1.97142461000000 115.23627971000001 -535.44701663475598
1.00676816000000 1.68888476000000 103.66840995000000 -535.47411112190298
0.96446195000000 1.64079359000000 135.10379205999999 -535.45120846559917
0.95407837000000 2.07817327000000 103.00000000000000 -535.44124327840802
0.95058570000000 1.69383403000000 103.00000000000000 -535.47543450507897
1.09877837000000 1.68888476000000  62.47064711000000 -535.41336968332098
0.79920463000000 1.68888476000000 128.39686301000000 -535.42154520977999
0.96446195000000 1.61937054000000  96.32481370000001 -535.47069613823601
0.96446195000000 1.67507184000000  85.76828555000000 -535.46552639472100
1.01735141000000 1.68888476000000  79.70070982000000 -535.45638314695998
0.96446195000000 1.67443426000000  95.46230550000000 -535.47357013431292
0.96446195000000 1.64224324000000 109.01634364000000 -535.47407404598891
0.90919622000000 1.68888476000000  94.45980686999999 -535.47008682354317
0.90388776000000 1.68888476000000  85.82154377000001 -535.46203694451594
0.82590593000000 1.68888476000000 103.94917192000000 -535.45067025681601
0.96891811000000 1.68888476000000  76.48406022000000 -535.45263258532100
0.79271227000000 1.85115568000000 103.00000000000000 -535.42377355279996
1.29763920000000 1.68888476000000 109.43143092000000 -535.42346045835916
1.45390209000000 1.56888991000000 103.00000000000000 -535.38589275239599
1.07314580000000 1.68888476000000 112.79370349000000 -535.46429216926902
0.96446195000000 1.63902859000000  98.97600729000000 -535.47348123407698
1.08807359000000 1.70093747000000 103.00000000000000 -535.46489356887503
1.21248468000000 1.59753973000000 103.00000000000000 -535.43766596515695
0.96446195000000 1.62841703000000  89.57631886000000 -535.46601578111495
0.91125094000000 1.68888476000000 114.34173310000000 -535.46915600833904
0.96446195000000 1.69539628000000 105.42988367000000 -535.47540674530001
0.86965395000000 1.68888476000000 116.25474168000000 -535.46051024628696
0.84580345000000 1.61806484000000 103.00000000000000 -535.45599481683098
0.98606814000000 1.47481901000000 103.00000000000000 -535.44402850793199
0.92222192000000 1.68888476000000 110.20395875000000 -535.47237361685200
0.96446195000000 1.78176457000000 122.12192271000001 -535.46053728870493
0.96446195000000 1.80261758000000 108.61553155999999 -535.46905973588105
0.96446195000000 1.45176905000000  75.86315316000000 -535.38591765511296
0.86551721000000 1.79744992000000 103.00000000000000 -535.45937672627497
1.06944173000000 1.87678448000000 103.00000000000000 -535.45681355605700
0.97772624000000 1.68831483000000 103.00000000000000 -535.47547273745795
1.15262349000000 1.69221343000000 103.00000000000000 -535.45397813995203
1.01636459000000 1.68888476000000 100.20483855000001 -535.47321639693291
0.99107068000000 1.54572603000000 103.00000000000000 -535.46287483031404
1.12910909000000 1.68888476000000 107.29342782000001 -535.45762082723002
0.92482681000000 1.52729846000000 103.00000000000000 -535.45825576568404
0.82479875000000 1.68030477000000 103.00000000000000 -535.45021541874803
0.96446195000000 1.72990193000000  80.34972946000001 -535.46090986254603
0.99757175000000 1.68888476000000  68.98682699000000 -535.43656927525706
1.02612688000000 1.57906669000000 103.00000000000000 -535.46579550731883
0.96446195000000 1.69863757000000  99.06940650999999 -535.47520937943796
0.97013095000000 1.65946551000000 103.00000000000000 -535.47519397172198
1.07953658000000 1.68888476000000  86.51600769000000 -535.45825813494491
1.03315382000000 1.68888476000000  81.14705787000000 -535.45722456695205
1.20440190000000 1.68888476000000  76.05168188000000 -535.42390911066400
0.96446195000000 1.78923205000000  89.86502010000000 -535.46932312981301
0.95552135000000 1.68888476000000  74.36859217999999 -535.44829171644994
1.05828484000000 1.65241900000000 103.00000000000000 -535.46834265004100
1.02343162000000 1.68888476000000 119.00933313000000 -535.46576657759101
1.02781782000000 1.68888476000000  87.63181029000000 -535.46533391220805
0.96446195000000 1.61741520000000 118.96216828999999 -535.46804376158002
0.96446195000000 1.67073913000000 141.54818169999999 -535.44146062995117
0.96446195000000 1.82395223000000  96.97686962000000 -535.46954945315201
1.47781642000000 1.68888476000000 117.10881584000001 -535.38411473809595
0.99805713000000 1.68888476000000 138.45121477000001 -535.44431720733598
1.12358526000000 1.66610795000000 103.00000000000000 -535.45887017786492
1.08830454000000 1.68888476000000  99.57306769000000 -535.46461160461899
1.25519812000000 1.76106748000000 103.00000000000000 -535.43175286359997
1.01237150000000 1.66313115000000 103.00000000000000 -535.47339132249397
1.33150260000000 1.64039673000000 103.00000000000000 -535.41636235847295
1.06396325000000 1.68888476000000  83.98562973000000 -535.45755597219102
0.98526705000000 1.43138019000000 103.00000000000000 -535.42592000948696
0.89580383000000 1.80198179000000 103.00000000000000 -535.46553047202701
0.95904272000000 1.68888476000000  67.04408789999999 -535.43132410556905
0.96446195000000 1.56577572000000  78.56963368000000 -535.43739055784101
0.91242423000000 1.84630102000000 103.00000000000000 -535.46412820433693
1.31369524000000 1.68888476000000 108.26208065000000 -535.42048825016491
0.85599273000000 1.68888476000000  85.77678535000000 -535.45148427257095
1.23333540000000 1.79828771000000 103.00000000000000 -535.43412624954397
1.00630919000000 1.64018890000000 103.00000000000000 -535.47295368537903
1.05438446000000 1.51480066000000 103.00000000000000 -535.45035155027097
0.96446195000000 2.04846870000000  88.16586848000000 -535.44607660607005
0.96446195000000 1.83906808000000 106.02827274000001 -535.46697966366105
0.95567149000000 1.68888476000000 142.76056081999999 -535.43888348146697
0.99534847000000 1.68888476000000  66.24637855000000 -535.42971080646498
0.90405569000000 2.04896421000000 103.00000000000000 -535.44030889773603
1.36187619000000 1.67426869000000 103.00000000000000 -535.41115776450999
0.99780770000000 1.68888476000000 104.49919764000001 -535.47460350513904
1.50246998000000 1.68888476000000 109.82868375000000 -535.38305437886595
0.96446195000000 1.70995618000000  71.68534880999999 -535.44478170234095
1.12218988000000 1.81622840000000 103.00000000000000 -535.45410769619104
1.29287525000000 1.67209761000000 103.00000000000000 -535.42545068414097
0.96446195000000 1.82963412000000 108.52690492000001 -535.46677419848004
1.18641159000000 1.68888476000000 122.64817019000000 -535.43719131094997
0.96446195000000 1.59936745000000 101.84519695000000 -535.47111690976396
0.96446195000000 1.64576034000000 129.14071258999999 -535.45882715124799
0.96446195000000 1.59332371000000 107.33918400000000 -535.47108138882004
0.83424822000000 2.04425584000000 103.00000000000000 -535.42228460716206
1.26512443000000 1.78233714000000 103.00000000000000 -535.42853671658804
1.03651089000000 1.68888476000000 134.35155950999999 -535.44702605224495
0.98245887000000 1.68888476000000  61.78626425000000 -535.41672985812795
0.96446195000000 1.86090299000000  66.84076742000001 -535.43957436679500
1.23985615000000 1.68888476000000  89.74408314000000 -535.43198878657199
1.00045781000000 1.70214521000000 103.00000000000000 -535.47446130612400
0.96446195000000 1.69008639000000 106.96604373000000 -535.47516285521999
0.96446195000000 1.70739722000000  61.25730304000000 -535.41718183804096
0.98546350000000 2.04363665000000 103.00000000000000 -535.44534292744402
0.88271455000000 1.68888476000000  83.48617159000000 -535.45537086967204
1.05743527000000 1.68888476000000 108.23451633000001 -535.46831166932702
1.05574557000000 1.68888476000000 102.92722639000000 -535.46936899707600
0.92443214000000 1.68888476000000 114.48715916000000 -535.47038607058698
1.23502389000000 1.68888476000000  85.02140966000000 -535.42890751089101
1.12060022000000 1.89399804000000 103.00000000000000 -535.44741065196604
0.96446195000000 1.60195059000000 115.23890163000000 -535.46947185723604
0.79314788000000 1.68888476000000 104.92712044000000 -535.43394835743402
0.96728846000000 1.63067546000000 103.00000000000000 -535.47393743535395
1.07641583000000 1.68888476000000 136.10069806000001 -535.43954302050497
1.20313948000000 1.69452971000000 103.00000000000000 -535.44417867845004
0.90000292000000 1.80010502000000 103.00000000000000 -535.46634698894900
1.32596537000000 1.51287789000000 103.00000000000000 -535.40000246188401
1.45853863000000 1.55888254000000 103.00000000000000 -535.38363760416803
0.99965001000000 1.65340057000000 103.00000000000000 -535.47394642145696
0.96446195000000 1.66628105000000  98.66450362000000 -535.47462401615496
0.88601535000000 1.75900668000000 103.00000000000000 -535.46661652631803
1.16188080000000 1.68888476000000 131.29342810000000 -535.43190024717899
1.17990130000000 1.79954728000000 103.00000000000000 -535.44475821874198
0.99914352000000 1.84122148000000 103.00000000000000 -535.46683547890200
0.82348674000000 1.95478784000000 103.00000000000000 -535.42849092630001
0.96446195000000 2.01243427000000 124.48195258000000 -535.43356254760897
0.88839426000000 1.48792252000000 103.00000000000000 -535.44288375334600
1.46101261000000 1.68888476000000 108.34203319000000 -535.39103774481202
1.01718536000000 1.68888476000000  56.09570109000000 -535.39729030390492
0.97723251000000 1.69887113000000 103.00000000000000 -535.47544167312401
1.26182501000000 1.68888476000000  88.25662178000000 -535.42629961472596
0.86098773000000 1.67748552000000 103.00000000000000 -535.46290567368601
1.09002047000000 1.68888476000000 130.91368381999999 -535.44469243227900
0.96446195000000 1.76156673000000 105.71574683000000 -535.47299566113099
0.96446195000000 1.89007820000000  95.60867365000000 -535.46373273789197
1.06121979000000 1.53731147000000 103.00000000000000 -535.45471025440099
0.84468289000000 1.68888476000000  70.45496645999999 -535.41972633389196
1.26159856000000 1.78701524000000 103.00000000000000 -535.42899026791201
0.98223879000000 1.68888476000000 109.13380589000000 -535.47425390071999
0.75013377000000 1.83667536000000 103.00000000000000 -535.39339822142801
1.12171581000000 1.68888476000000  83.70791709000000 -535.44880316292802
0.96446195000000 1.85690574000000  78.58764502000000 -535.45676780138399
1.01242691000000 1.68888476000000  74.87086932000000 -535.44849556707800
1.31153830000000 1.75229929000000 103.00000000000000 -535.42034223341295
0.96446195000000 1.47289361000000  96.57249191000000 -535.43843825309705
0.96446195000000 1.48364727000000  91.40971687000000 -535.43587964032304
0.96446195000000 1.93755577000000  80.98983577000000 -535.45356828488400
0.86692279000000 1.92672954000000 103.00000000000000 -535.44707350725605
0.96446195000000 1.96771878000000  98.27576206000001 -535.45549431708196
1.25404758000000 1.73928089000000 103.00000000000000 -535.43289689405196
0.96446195000000 1.80112225000000 100.26871851999999 -535.47130749978396
1.01509368000000 1.67091999000000 103.00000000000000 -535.47335135642004
1.51929600000000 1.65787686000000 103.00000000000000 -535.38067568240501
0.96446195000000 1.77379974000000 124.71406111000000 -535.45837564842395
0.96446195000000 1.67031315000000  61.83126557000000 -535.41308688990000
0.96446195000000 1.75458264000000 124.76749725000001 -535.45976119151692
0.89819761000000 1.68176463000000 103.00000000000000 -535.47087863694196
0.88752179000000 2.02012050000000 103.00000000000000 -535.44086918628716
1.26295374000000 1.68888476000000 120.77317007000001 -535.42356851139004
0.96446195000000 1.57883541000000 111.50218669000000 -535.46882471046194
1.13757876000000 1.68888476000000 114.32876971000000 -535.45303453479801
0.96446195000000 1.77523909000000  99.20799784000000 -535.47292902197103
0.76285922000000 1.68888476000000 133.51303976000000 -535.39082188926295
0.97501152000000 1.68888476000000 111.67145175000000 -535.47338839250403
1.13503111000000 1.68888476000000 105.81038184000001 -535.45689559341804
0.96446195000000 1.63414596000000 124.41907260000001 -535.46385663562091
0.96446195000000 1.68253486000000  96.30706398000000 -535.47417084495203
1.05691082000000 1.48104087000000 103.00000000000000 -535.44007483111795
0.96446195000000 1.98485650000000 113.12652562000000 -535.44703803382197
1.44784138000000 1.68888476000000 109.57858797000000 -535.39319019214997
1.10433493000000 1.68888476000000 109.30462851999999 -535.46117276190500
0.72451313000000 1.80295756000000 103.00000000000000 -535.37076116115497
1.03947351000000 1.47866585000000 103.00000000000000 -535.44130089303701
1.07937662000000 1.80258826000000 103.00000000000000 -535.46180802177605
1.46743546000000 1.60258233000000 103.00000000000000 -535.38709203858002
0.96446195000000 1.72066809000000 109.79502847000001 -535.47351799412695
0.76551601000000 1.74964649000000 103.00000000000000 -535.41307226137098
0.98088807000000 1.58840701000000 103.00000000000000 -535.46989277821694
1.34591273000000 1.78945944000000 103.00000000000000 -535.41116730995896
0.71199303000000 1.80683445000000 103.00000000000000 -535.35571330932100
0.83054555000000 1.68888476000000  77.36215701000000 -535.42951230087601
0.96446195000000 1.78034709000000  71.08887824999999 -535.44707895324598
0.92483566000000 1.63325913000000 103.00000000000000 -535.47258207634604
1.29972301000000 1.68888476000000  83.58325966000000 -535.41410747355701
0.89785519000000 1.68888476000000 100.82686590000000 -535.47066534024100
0.68782040000000 1.68888476000000 108.60489548000000 -535.32860464637201
1.12340839000000 1.68888476000000 110.92876769999999 -535.45733035124999
0.96446195000000 1.51733068000000 113.81482151000000 -535.45807106747691
0.99551762000000 1.68888476000000  87.10408382999999 -535.46702975477206
1.04634305000000 1.68888476000000 118.03492873000000 -535.46420287857700
1.33240978000000 1.68888476000000  88.16272656000000 -535.41147446077798
0.96446195000000 1.61484687000000  81.82902726000000 -535.45359891746205
1.19394698000000 1.68888476000000  76.20874375000000 -535.42608882427601
1.27642551000000 1.47804404000000 103.00000000000000 -535.39988348098302
1.55388969000000 1.59558898000000 103.00000000000000 -535.37160466014700
0.96446195000000 1.58615382000000  94.98534764000000 -535.46579146546901
0.94678736000000 1.88252121000000 103.00000000000000 -535.46332092386297
1.19119411000000 1.83069224000000 103.00000000000000 -535.44022331382496
1.08651010000000 1.68888476000000  99.63712365000001 -535.46489113721202
1.19484992000000 1.68888476000000 131.32176679000000 -535.42556746835396
1.07757265000000 1.68888476000000 143.65326422000001 -535.42778093525499
0.86002811000000 1.68888476000000  77.19145842000000 -535.43953741385599
1.00694046000000 1.68888476000000 109.05052532000001 -535.47303242752798
1.22624283000000 1.68888476000000 102.76532117000001 -535.43948556109206
1.20228197000000 1.68888476000000 128.74629246000001 -535.42736539208795
0.79023347000000 1.46343846000000 103.00000000000000 -535.39809235382404
0.82261984000000 1.64950616000000 103.00000000000000 -535.44872223718698
0.92203621000000 1.68888476000000  75.32935759999999 -535.44788959797904
0.96446195000000 1.91754334000000 119.88517536000001 -535.44911865769097
0.91054512000000 1.68888476000000  76.34349602000000 -535.44848137233305
1.30389179000000 1.69746648000000 103.00000000000000 -535.42330596413296
0.98171363000000 1.57312628000000 103.00000000000000 -535.46785253780399
1.50700680000000 1.68888476000000 109.93658775999999 -535.38221712259997
1.24377018000000 1.65919301000000 103.00000000000000 -535.43536926016998
1.13525888000000 1.68888476000000 110.63419905000001 -535.45538380102505
1.07478975000000 1.68888476000000  77.02182418000000 -535.44645054657099
0.96446195000000 1.61222436000000 123.63466373000000 -535.46388010651117
0.99486500000000 1.68888476000000 116.23256262000000 -535.46995429171295
0.94417770000000 1.68888476000000  88.76703394000000 -535.46882687381799
1.23504977000000 1.68888476000000 111.71984997000000 -535.43549140600396
0.96446195000000 1.76192782000000  96.53468402000000 -535.47319475628899
0.96446195000000 1.89276009000000  90.92126970000000 -535.46260358386905
0.79467897000000 1.77853757000000 103.00000000000000 -535.43120480609798
0.96446195000000 1.89682204000000 109.75960419000000 -535.45933508394296
0.96446195000000 1.78339539000000 112.81368209000000 -535.46825370748491
1.24319277000000 1.50540216000000 103.00000000000000 -535.41474298673290
0.96446195000000 1.49226043000000  93.19195841000000 -535.44146918207298
0.88293247000000 1.68888476000000  99.03567292000000 -535.46763406619596
1.14621531000000 1.68888476000000 139.52698110000000 -535.42296445442605
0.96446195000000 1.61201433000000 103.99679347000000 -535.47272215978001
0.95468824000000 1.68888476000000 130.68134126999999 -535.45614625235100
0.88459580000000 1.68888476000000 113.00037718000000 -535.46579596309005
0.96446195000000 1.75970423000000  78.92331206999999 -535.45943635480296
0.96446195000000 1.74970259000000 100.77724578999999 -535.47423906920596
0.96446195000000 1.78993475000000 106.51376879999999 -535.47088950612999
0.96446195000000 1.99548697000000 107.92491208000000 -535.44903175702905
1.16444671000000 1.68888476000000 104.69128691000000 -535.45163558726802
1.29678077000000 1.68888476000000  86.30409711000000 -535.41734569140317
0.68473591000000 1.68888476000000 132.00311311999999 -535.30471896328891
1.03445064000000 1.72843012000000 103.00000000000000 -535.47118483250301
0.96961179000000 1.68888476000000 100.70626586000000 -535.47545562953997
0.97949607000000 1.68888476000000 106.88161469000001 -535.47498064154195
0.92708169000000 2.07202748000000 103.00000000000000 -535.44033896111102
0.91403477000000 1.68888476000000  83.07752594999999 -535.45991096478303
0.96446195000000 1.81285784000000  88.13460090000000 -535.46714367084996
0.96446195000000 1.53252887000000 101.81958684000000 -535.46035010746402
0.96540094000000 1.68045628000000 103.00000000000000 -535.47560007699701
0.94922495000000 1.68888476000000 104.56931535000000 -535.47534040580297
1.04562055000000 1.86004964000000 103.00000000000000 -535.46128615148996
0.96446195000000 1.61322000000000 110.52883875000001 -535.47218885415691
0.96446195000000 1.71137944000000  66.77774280000000 -535.43342479493901
1.14049940000000 1.68888476000000 120.62437941000000 -535.44771679481198
0.82194825000000 1.68888476000000  78.02768836000000 -535.42703306895896
0.96446195000000 1.61989539000000 109.13684979000000 -535.47297433483504
0.96446195000000 1.81072920000000 114.72192694000000 -535.46466685334497
0.94739416000000 1.67691111000000 103.00000000000000 -535.47529635374497
1.00804138000000 1.68888476000000  78.35205805000000 -535.45484794269805
0.89765733000000 1.66217634000000 103.00000000000000 -535.47052983338801
0.96446195000000 1.54990379000000  89.84228435999999 -535.45354421300101
0.96446195000000 1.74282410000000  66.42199787000000 -535.43532607965005
0.96446195000000 1.71176006000000  87.88867834000000 -535.46910991692505
0.96446195000000 1.79762817000000  75.34017132000000 -535.45431684928997
0.84967277000000 1.43620774000000 103.00000000000000 -535.41320502732594
0.96446195000000 1.94512407000000  93.41312658000000 -535.45801396366801
0.70675829000000 1.68888476000000 132.44763237999999 -535.33500395120905
0.96446195000000 1.86454813000000 116.30419465000000 -535.45816891920902
0.96446195000000 1.55882858000000 109.38484004000000 -535.46657764080601
1.08442268000000 1.68888476000000  90.07667592999999 -535.46070960789802
0.86833686000000 1.77804508000000 103.00000000000000 -535.46149393660801
0.96446195000000 1.82994654000000  82.80594542000000 -535.46224436524301
0.96446195000000 1.49731116000000 107.88848541000000 -535.45342636131602
0.96446195000000 1.63717217000000  57.94344421000000 -535.39120195172598
1.06784118000000 1.47547184000000 103.00000000000000 -535.43674518929902
1.03667274000000 1.70145627000000 103.00000000000000 -535.47149425796499
1.20672951000000 1.68888476000000 114.24704796000000 -535.43987332382892
1.00962093000000 1.58219180000000 103.00000000000000 -535.46759419096804
0.96446195000000 1.45793680000000 109.83791771999999 -535.44077054289596
0.94909996000000 1.81681772000000 103.00000000000000 -535.46949453533000
1.12223731000000 1.68888476000000  86.08624879000000 -535.45126602004700
0.98650032000000 1.68888476000000  88.93873035999999 -535.46913686844800
0.90094246000000 1.68888476000000  74.85675827999999 -535.44411456002501
0.94260630000000 1.68888476000000  97.23211394000000 -535.47414514590105
1.17427150000000 1.68888476000000 125.99180858000000 -535.43601473000399
0.96446195000000 1.69655907000000 102.38050207000001 -535.47560224562096
1.12654958000000 1.69143785000000 103.00000000000000 -535.45867030103000
0.92621552000000 1.84971912000000 103.00000000000000 -535.46523966602092
0.95745945000000 1.98445482000000 103.00000000000000 -535.45235525863916
0.96446195000000 1.86760330000000  77.89074191000000 -535.45547759168892
1.10190522000000 1.86806760000000 103.00000000000000 -535.45296232975500
1.13241962000000 1.79233598000000 103.00000000000000 -535.45404296064498
0.89133669000000 1.84064458000000 103.00000000000000 -535.46147287711403
0.96446195000000 1.70503582000000 110.05531596000000 -535.47389803047201
0.82680796000000 1.78320824000000 103.00000000000000 -535.44716316615097
1.04201260000000 1.78075509000000 103.00000000000000 -535.46794809006997
0.96446195000000 1.90295033000000  84.06827835999999 -535.45848816318801
0.92230448000000 1.82847971000000 103.00000000000000 -535.46680299570801
1.14236015000000 1.61078234000000 103.00000000000000 -535.45249599785996
1.08008947000000 1.85992539000000 103.00000000000000 -535.45696590617797
0.96446195000000 1.83735090000000 108.76664316999999 -535.46594335396298
0.96446195000000 1.72486428000000  59.43940575000000 -535.41372168705004
1.04624929000000 1.69739362000000 103.00000000000000 -535.47048071547101
0.96446195000000 1.64861409000000 111.87344480000000 -535.47327415721691
0.87919880000000 1.68888476000000 110.78119056000000 -535.46576225306501
0.96412263000000 1.58660182000000 103.00000000000000 -535.46995728266597
1.08611798000000 1.68888476000000  63.75241170000000 -535.41784683051117
0.98811007000000 1.68888476000000 121.86709729000000 -535.46557154136099
0.98902819000000 1.70560176000000 103.00000000000000 -535.47498955969400
0.96446195000000 1.89017303000000 108.33223017000000 -535.46083207518598
0.96446195000000 1.79189008000000 100.04869604000000 -535.47194003332299
1.40351082000000 1.68888476000000  92.66382843000000 -535.39988550043404
0.99848838000000 1.79845409000000 103.00000000000000 -535.47031852499083
1.01878722000000 1.68888476000000 126.84573996000000 -535.45833723279100
1.07459714000000 1.84216124000000 103.00000000000000 -535.45932285951096
0.85249419000000 1.62205597000000 103.00000000000000 -535.45842695597901
0.96446195000000 1.72444112000000 103.20606282000000 -535.47507606866600
1.00463704000000 1.68062023000000 103.00000000000000 -535.47423199995899
1.19673052000000 1.68888476000000  87.62382529999999 -535.43900595755997
0.96446195000000 1.93655078000000 122.72030497999999 -535.44407212264105
1.36999468000000 1.68888476000000 114.95469292999999 -535.40602290337995
0.84848609000000 1.63389818000000 103.00000000000000 -535.45788061511098
1.34589068000000 1.68888476000000  89.56888590000000 -535.40973237031994
1.05163338000000 1.68888476000000  95.18476367000000 -535.46816336117297
0.96446195000000 1.64434072000000 125.12933864000000 -535.46328554642105
1.13445689000000 1.63378895000000 103.00000000000000 -535.45561863599096
1.07651699000000 1.68888476000000  82.00137447000000 -535.45349227654594
1.25333330000000 1.78616953000000 103.00000000000000 -535.43076520598402
0.87802843000000 1.68888476000000 109.61425027000000 -535.46596807114702
1.08451071000000 1.85646757000000 103.00000000000000 -535.45665427344090
1.13133896000000 1.67747940000000 103.00000000000000 -535.45773278464401
1.06556981000000 1.68888476000000 121.38153534999999 -535.45891635124701
0.96446195000000 1.51771113000000 116.63253236000000 -535.45715940361197
0.99593678000000 1.51680552000000 103.00000000000000 -535.45621441405206
0.90868082000000 2.00156239000000 103.00000000000000 -535.44661756373398
0.96446195000000 1.59301542000000 129.18693825000000 -535.45707794662098
1.06964812000000 1.68888476000000 104.58515432000000 -535.46746761683903
0.88956023000000 1.76569518000000 103.00000000000000 -535.46690811733004
0.92791619000000 1.68888476000000 109.70289256000000 -535.47303679252093
0.96446195000000 1.57193490000000 138.06073185000000 -535.44452131945195
1.48441239000000 1.70846417000000 103.00000000000000 -535.38701215186597
0.96446195000000 1.87347481000000  81.34676414000000 -535.45852912880798
0.96446195000000 1.67942134000000  74.27739269999999 -535.44743874301400
0.96446195000000 1.80018490000000 121.73269302000000 -535.45937152487295
1.42054179000000 1.65448823000000 103.00000000000000 -535.39894571927096
1.21745975000000 1.68888476000000 117.68008580000000 -535.43537641529997
0.93125067000000 1.52469471000000 103.00000000000000 -535.45811564858695
1.20551955000000 1.55196415000000 103.00000000000000 -535.43264613065116
0.86109584000000 1.68888476000000 106.39046390999999 -535.46267024410599
0.90705656000000 1.68888476000000  99.28222975000000 -535.47169415224801
0.96446195000000 1.60286644000000 107.65300938000000 -535.47195486876296
0.96446195000000 1.79536341000000  79.57980884000000 -535.46004605961696
0.96446195000000 1.86923062000000  89.02850415000000 -535.46387077685699
1.10973885000000 1.68888476000000 111.85080001000000 -535.45919948309404
0.82912640000000 1.95618218000000 103.00000000000000 -535.43078072054004
1.18276080000000 1.68888476000000 118.70294410000000 -535.44144584606295
0.82361064000000 1.73688562000000 103.00000000000000 -535.44845984569702
0.96446195000000 1.80012682000000 110.12078604000000 -535.46851381030797
1.13725617000000 1.68888476000000  65.77221504000001 -535.41669858908699
1.20695272000000 1.68888476000000 123.32142037000000 -535.43248373281995
1.10674786000000 1.95444840000000 103.00000000000000 -535.44325468047998
0.95208293000000 1.68888476000000 137.71099498000001 -535.44644165203397
0.86293383000000 1.91843779000000 103.00000000000000 -535.44691996561403
0.96446195000000 1.53833751000000 128.06219781999999 -535.45249828174201
0.96446195000000 1.76506566000000 124.26591041000000 -535.45955318658798
0.96446195000000 1.85547200000000 110.88065852000000 -535.46301326721800
0.99187245000000 1.68888476000000  85.89964491000001 -535.46591491889603
0.94814726000000 1.66737313000000 103.00000000000000 -535.47517736924499
1.18891749000000 1.68888476000000 109.75921092000000 -535.44562761811005
0.88201163000000 1.64583640000000 103.00000000000000 -535.46720849775295
1.17003312000000 1.55727363000000 103.00000000000000 -535.44050216781397
0.96446195000000 1.60180264000000  91.69355075000000 -535.46503977843099
0.96446195000000 1.57982887000000 117.87489797000001 -535.46604739964300
1.15521930000000 1.68888476000000 122.73178436000001 -535.44303655791600
1.02408287000000 1.53988003000000 103.00000000000000 -535.45938507908204
1.10154522000000 1.83491565000000 103.00000000000000 -535.45598019804800
0.96446195000000 1.70293918000000  62.96851716000000 -535.42184826353298
0.99464972000000 1.65854487000000 103.00000000000000 -535.47438996103199
0.80966531000000 1.67305368000000 103.00000000000000 -535.44309942421796
0.83012804000000 1.71477944000000 103.00000000000000 -535.45200182689405
0.77695441000000 1.66523408000000 103.00000000000000 -535.42344377432801
1.10735148000000 1.70034079000000 103.00000000000000 -535.46187808585501
0.96446195000000 1.87630273000000 103.12445382000000 -535.46432732105700
0.96480764000000 1.48120843000000 103.00000000000000 -535.44671764121199
0.96446195000000 1.62583713000000 113.75434737000000 -535.47163644254795
1.02322956000000 1.68888476000000 118.20984879000000 -535.46643823244301
0.94784180000000 1.88382915000000 103.00000000000000 -535.46322933237798
0.93775425000000 1.68888476000000  82.24110180000000 -535.46089000938605
1.23807889000000 1.68888476000000 104.20293495000000 -535.43698550421198
1.04916275000000 1.68888476000000 102.95286985000000 -535.47016058080396
0.96446195000000 1.79638654000000  97.55789935000000 -535.47152976216205
0.96446195000000 1.70810911000000  85.35777655000000 -535.46650176000196
0.96446195000000 1.82878018000000  79.90477287000000 -535.45942861352398
0.96446195000000 1.83293029000000  80.00919184999999 -535.45937303952303
0.90231321000000 1.68702371000000 103.00000000000000 -535.47150044710304
0.97013558000000 1.68888476000000 125.66306677999999 -535.46215025769800
0.92098840000000 1.55808027000000 103.00000000000000 -535.46403056788097
0.90990751000000 1.60510396000000 103.00000000000000 -535.46897549348000
0.89203417000000 2.04443712000000 103.00000000000000 -535.43882957363996
1.03044163000000 1.68888476000000  87.42983550000000 -535.46490121119098
0.96446195000000 2.09003578000000  86.45035894999999 -535.44121488254495
0.82990468000000 1.68888476000000 115.05841893000000 -535.44852802598200
0.96446195000000 1.72277198000000 108.61108022000001 -535.47391182576405
1.30789198000000 1.81292626000000 103.00000000000000 -535.41753103395604
1.07157079000000 1.68888476000000 129.36888078999999 -535.44933188280595
0.95283071000000 1.68888476000000  90.20975154000000 -535.47039050157900
0.96446195000000 1.93280835000000 115.50485363999999 -535.45128465991399
0.96446195000000 1.62862722000000  78.35143223999999 -535.44930877188403
0.93666589000000 1.68888476000000  90.76011059000000 -535.47014340253895
1.26959530000000 1.64522099000000 103.00000000000000 -535.42947095955117
1.00313371000000 1.68888476000000  66.28779036000000 -535.42967937144795
0.96446195000000 1.71357652000000 143.10698439000001 -535.43702053462096
0.96446195000000 1.93494422000000 127.61888414000001 -535.43863963561500
0.84361890000000 1.69430293000000 103.00000000000000 -535.45746427278198
0.84797738000000 1.70117844000000 103.00000000000000 -535.45885254795996
0.96446195000000 1.92505993000000  96.67766056000001 -535.46025306274396
1.09096235000000 1.68888476000000  59.89608213000000 -535.40704658152299
0.93479225000000 1.68888476000000  76.08930079000000 -535.45052572431916
0.96446195000000 1.73295471000000 118.49456410000001 -535.46733274045903
0.87524337000000 1.85475531000000 103.00000000000000 -535.45679955848800
1.19471953000000 1.68888476000000 117.19126835000000 -535.44028044259301
0.96446195000000 1.51634616000000  98.75516433000000 -535.45451597113504
0.96446195000000 1.53673810000000 110.96638235000000 -535.46263199935004
1.18828044000000 1.77081449000000 103.00000000000000 -535.44488124655697
0.96446195000000 1.56822583000000  73.78311990000000 -535.42636077557995
0.96446195000000 1.63187267000000 102.34918551000000 -535.47392945155605
0.96446195000000 1.58600449000000 109.13181784000000 -535.47012658035806
1.09780835000000 1.70672681000000 103.00000000000000 -535.46334183860301
1.04461365000000 1.77743891000000 103.00000000000000 -535.46786660725797
0.96446195000000 1.96240096000000 102.46064690000000 -535.45518430098105
1.00452502000000 1.68888476000000 110.96963456000000 -535.47243299535000
1.09888987000000 1.68888476000000 124.36842253000000 -535.45107248816601
1.04024066000000 1.66127760000000 103.00000000000000 -535.47075947711517
1.44655322000000 1.68195309000000 103.00000000000000 -535.39436605678497
0.96446195000000 1.52932738000000  92.74283651000000 -535.45213300322200
1.20445158000000 1.68888476000000 102.75297270000000 -535.44391266882894
0.96446195000000 1.67452329000000 102.62611898999999 -535.47552547921805
1.08172657000000 1.52051213000000 103.00000000000000 -535.44808626623706
0.96446195000000 1.78604378000000 116.37354800999999 -535.46547647013199
0.96446195000000 1.73055166000000 119.66873750000001 -535.46643396862316
0.96446195000000 1.77609634000000 110.00136829000000 -535.47039901008804
1.05383262000000 1.95621452000000 103.00000000000000 -535.45035452736295
0.98371373000000 1.86331139000000 103.00000000000000 -535.46541631255798
1.02507488000000 1.54028714000000 103.00000000000000 -535.45937649034704
1.10887389000000 1.68888476000000  68.92823516999999 -535.42708476912901
1.08152696000000 1.68888476000000 106.03090902000000 -535.46558263704799
0.88140468000000 1.66055778000000 103.00000000000000 -535.46756215564699
0.96446195000000 1.66212846000000 141.74112255000000 -535.44141076735195
1.00154365000000 1.68888476000000  88.48204079000000 -535.46805005337603
0.96446195000000 1.68880056000000 128.85731632000000 -535.45848348902598
0.90735530000000 1.74478330000000 103.00000000000000 -535.47079413008498
1.29751602000000 1.61109486000000 103.00000000000000 -535.42145361115297
1.02183922000000 1.68888476000000 136.38766763000001 -535.44556519698494
0.96446195000000 1.71200415000000  72.66406864000000 -535.44697873830205
0.84383160000000 1.73583738000000 103.00000000000000 -535.45644112361799
1.17594994000000 1.68888476000000 104.86069578000000 -535.44940753288802
0.96446195000000 1.73636046000000  79.18717203999999 -535.45944005270098
1.11429671000000 1.94468005000000 103.00000000000000 -535.44311992028202
0.96446195000000 1.57938412000000  90.81817221000000 -535.46067806187398
1.03818917000000 1.59228187000000 103.00000000000000 -535.46622849345295
0.96446195000000 1.64918894000000  59.73430300000000 -535.40128464339898
0.96446195000000 1.84510091000000 106.46530762000000 -535.46624825194601
0.78060785000000 1.89382411000000 103.00000000000000 -535.41144290525699
0.96446195000000 1.81052381000000  72.27832029000000 -535.44944756471500
1.06044084000000 1.68888476000000  80.52528286000000 -535.45350837079297
1.11038088000000 1.68888476000000  97.62412643000000 -535.46067361832399
1.04955943000000 1.68888476000000 133.00272154000001 -535.44741925771098
1.12261376000000 1.68888476000000  62.28822706000000 -535.41046928010599
0.98656616000000 1.68888476000000 139.63161557999999 -535.44313453526297
0.96446195000000 1.63298294000000  80.51265234000000 -535.45390193592004
0.87734865000000 1.68888476000000 113.54300191999999 -535.46399907100295
0.96446195000000 1.70750182000000  95.52124037999999 -535.47408997961691
0.96446195000000 1.71894771000000  83.46547319000000 -535.46462798158404
0.92588376000000 1.68888476000000 113.99550488000000 -535.47080197812897
1.03713820000000 1.68176541000000 103.00000000000000 -535.47145954477901
0.99497724000000 1.68888476000000 116.63948624000000 -535.46965706745095
0.99221450000000 1.80433629000000 103.00000000000000 -535.47018949562892
0.91956849000000 1.83397104000000 103.00000000000000 -535.46605038171117
1.07189898000000 1.68888476000000  89.61168237000000 -535.46209135976505
0.96446195000000 1.74497714000000  79.53035644000001 -535.46009936505902
0.95136196000000 1.68888476000000  60.14291241000000 -535.40975607956204
0.96446195000000 1.84546671000000  80.94312226000000 -535.45974542763804
0.96446195000000 1.97003364000000  90.34502268999999 -535.45491598254000
0.96446195000000 1.84915404000000 106.27453353000000 -535.46593923571197
0.87774720000000 1.68888476000000 112.72279263000000 -535.46453157135500
0.99718283000000 1.68888476000000  58.05275774000000 -535.40437823298703
0.96850555000000 1.64283311000000 103.00000000000000 -535.47458487843198
0.96446195000000 1.82187263000000  78.51623054000000 -535.45809583885102
0.95373825000000 1.77986304000000 103.00000000000000 -535.47232510838717
1.32622663000000 1.69460302000000 103.00000000000000 -535.41864774796602
0.96446195000000 1.61887339000000 112.41408896000000 -535.47188183438891
0.84968973000000 1.76072815000000 103.00000000000000 -535.45717096640999
1.02474412000000 1.94477476000000 103.00000000000000 -535.45454045941199
0.96446195000000 1.68190204000000  82.30417121000001 -535.46148259335700
1.20909114000000 1.68888476000000 110.97941963000000 -535.44110596785401
1.07092143000000 1.68888476000000  69.12629941000000 -535.43196020915502
0.89720792000000 1.58227534000000 103.00000000000000 -535.46472718920597
1.09602483000000 1.68888476000000 124.72654005000000 -535.45113807370399
1.20554706000000 1.68888476000000  95.08721688999999 -535.44208497731404
0.96446195000000 1.40986273000000 112.72121832000001 -535.41947544987499
1.16429794000000 1.78499438000000 103.00000000000000 -535.44869261574001
0.96446195000000 2.11022163000000  85.06601947000000 -535.43872235590698
1.05324011000000 1.66007393000000 103.00000000000000 -535.46922758242999
1.31832276000000 1.55126685000000 103.00000000000000 -535.40956201208701
0.96446195000000 1.74193353000000  85.94300398999999 -535.46751919839096
0.95341799000000 2.00893966000000 103.00000000000000 -535.44937701002300
0.96446195000000 1.77005331000000 121.85072882000000 -535.46174068995595
0.84254157000000 1.66364175000000 103.00000000000000 -535.45694823099802
1.24899587000000 1.68793827000000 103.00000000000000 -535.43478273158098
1.10880558000000 1.68888476000000  71.97857528000000 -535.43309005327706
0.96446195000000 1.81896323000000  79.86234232000000 -535.45974076732296
0.83495172000000 1.68888476000000 114.51381997999999 -535.45085251024398
0.91360438000000 1.68888476000000  84.29745443000000 -535.46146534934405
1.08630361000000 1.75190113000000 103.00000000000000 -535.46378005552901
0.95460688000000 1.68888476000000 105.33803371000000 -535.47538207255695
0.96446195000000 1.56409186000000 105.92626605000000 -535.46737929457299
0.96446195000000 1.66574042000000 129.09400209000000 -535.45876171707903
0.96446195000000 1.53898896000000  88.39560753000001 -535.44882860275595
1.19980568000000 1.87066895000000 103.00000000000000 -535.43502904338402
1.54436442000000 1.65582077000000 103.00000000000000 -535.37631945133705
0.83790300000000 1.69212330000000 103.00000000000000 -535.45543020919899
0.88127084000000 1.68888476000000  89.29797040000000 -535.46164531390002
1.20854771000000 1.68888476000000  88.61498563000001 -535.43748660612596
1.04594156000000 1.68888476000000 126.08294728000000 -535.45648317731604
0.97334869000000 1.68888476000000 125.57516431000001 -535.46219746039799
1.25824286000000 1.82157755000000 103.00000000000000 -535.42728966876496
0.87764237000000 1.68888476000000 107.49701803000001 -535.46652605031397
0.98214011000000 1.68888476000000  84.40610436999999 -535.46449893690101
0.83099766000000 1.90404126000000 103.00000000000000 -535.43755497520397
0.75731597000000 1.68888476000000 118.35405641000000 -535.40249659226004
1.11573811000000 1.70980930000000 103.00000000000000 -535.46038921225397
1.30935791000000 1.68888476000000  86.37384495000001 -535.41478083050401
0.86013407000000 1.68888476000000  85.04514593000000 -535.45181354844897
1.10143434000000 1.79956256000000 103.00000000000000 -535.45872109333004
1.28222941000000 1.68888476000000 103.53516181000001 -535.42783558133101
0.90402115000000 1.68888476000000 119.16220668000000 -535.46476277601403
0.88506124000000 1.68888476000000 108.71843042000000 -535.46771464208405
0.96446195000000 1.57091191000000  79.20196692000000 -535.44002539478890
0.96446195000000 1.87096749000000  94.99044652000001 -535.46543627889400
1.26953612000000 1.68888476000000  94.51502145000001 -535.42864819346300
0.92953400000000 1.94643442000000 103.00000000000000 -535.45531488578695
1.06386579000000 1.82650901000000 103.00000000000000 -535.46206302404892
0.96446195000000 1.57650367000000 103.58779219000000 -535.46878439038801
0.96585357000000 1.56968693000000 103.00000000000000 -535.46765457676599
1.10189533000000 1.68888476000000 100.12129280000001 -535.46259828653797
1.06670487000000 1.57068197000000 103.00000000000000 -535.45992717760703
1.09370903000000 1.64778125000000 103.00000000000000 -535.46314963408304
0.89015336000000 1.90043741000000 103.00000000000000 -535.45522841462605
1.30694386000000 1.51257259000000 103.00000000000000 -535.40373631677699
0.96446195000000 1.91930210000000  97.37656106000000 -535.46083044644604
0.85560633000000 1.54030268000000 103.00000000000000 -535.44873159769395
1.19564023000000 1.68888476000000 123.80736150000000 -535.43422292134403
1.10848280000000 1.75940265000000 103.00000000000000 -535.45998335730303
1.19890790000000 1.64587300000000 103.00000000000000 -535.44399751215406
1.22196343000000 1.68888476000000  77.35231272000000 -535.42239697374703
1.09741815000000 1.68888476000000 114.51303894999999 -535.45968819904704
0.96446195000000 1.72818070000000 144.01835342000001 -535.43460651740600
0.96446195000000 1.69019247000000 122.51137740999999 -535.46544613963897
1.05930012000000 1.68888476000000 124.34191075000000 -535.45676963801293
0.96446195000000 1.73805227000000  99.08558058000000 -535.47455060007496
1.05906546000000 1.68888476000000 107.31272853999999 -535.46836481363005
1.01143953000000 1.68888476000000  91.16999074000000 -535.46963118111398
0.84728973000000 1.68888476000000  71.81765965000000 -535.42399837478001
1.09469203000000 1.68888476000000 123.08464467000000 -535.45305693327805
0.96248277000000 1.95343934000000 103.00000000000000 -535.45601808522201
1.18977782000000 1.51906224000000 103.00000000000000 -535.42884674986101
0.87488681000000 1.67550658000000 103.00000000000000 -535.46639849769599
0.96446195000000 1.87167154000000 100.85155288000000 -535.46527501375795
0.96446195000000 1.91181299000000  97.60510533000000 -535.46159510439804
1.08513834000000 1.86714605000000 103.00000000000000 -535.45557146442604
1.10769901000000 1.81308031000000 103.00000000000000 -535.45674321040497
0.96446195000000 1.74905589000000  89.85520080000001 -535.47059957253691
1.32666918000000 1.68888476000000  87.90553018000000 -535.41246645143099
0.84136178000000 1.68888476000000  83.14187533000000 -535.44321305600101
1.04202770000000 1.91333973000000 103.00000000000000 -535.45633103477405
0.80759458000000 1.68888476000000 120.21257387999999 -535.43443027979902
1.16821239000000 1.68888476000000  84.51210608000000 -535.44148625944297
0.97222654000000 1.68888476000000 113.26162730000000 -535.47260931381800
0.96446195000000 1.80738903000000  73.33687184999999 -535.45117824680801
0.96446195000000 1.82937228000000 104.58624569000000 -535.46833262801499
1.04228098000000 1.68888476000000 114.19090690000000 -535.46736159587203
1.16196380000000 1.68888476000000 125.89395847000000 -535.43844890949003
0.96446195000000 1.64190051000000  65.61575915000000 -535.41990276973002
0.86998495000000 1.68888476000000  99.64728191000000 -535.46487879016399
0.96446195000000 1.66742103000000 106.26100245000001 -535.47524450193691
1.12329372000000 1.68888476000000  88.97995353000000 -535.45371768145606
0.96446195000000 1.87241752000000  92.71039564000000 -535.46488077302695
0.85174803000000 1.72305444000000 103.00000000000000 -535.45954137751596
1.07833096000000 2.03010774000000 103.00000000000000 -535.43883510306000
0.96446195000000 1.75151986000000 107.22515186000000 -535.47309505738303
0.98270969000000 1.68888476000000  55.07220166000000 -535.39237434171798
0.96446195000000 1.71314233000000  67.47194066000000 -535.43535409871504
0.93791510000000 1.72263815000000 103.00000000000000 -535.47442240306304
0.96446195000000 1.74653523000000  77.32299492999999 -535.45691646028001
0.96446195000000 1.61829040000000  86.43101772999999 -535.46108856126796
0.96446195000000 1.70052399000000 138.48637013999999 -535.44485083494601
1.12263222000000 1.91599775000000 103.00000000000000 -535.44481373521796
1.06196069000000 1.68888476000000 100.48939747000000 -535.46843781866801
0.96446195000000 1.65502998000000  99.50586244000000 -535.47447044257297
0.96446195000000 1.70278745000000 108.81795525000000 -535.47442807681000
0.96446195000000 1.61590463000000  90.50988961000000 -535.46561178726404
0.81335053000000 1.68888476000000  75.85590983000000 -535.41873898396500
1.12868629000000 1.68888476000000  88.14737823999999 -535.45209715392491
1.11328100000000 1.75389913000000 103.00000000000000 -535.45945380674891
0.76088120000000 1.57421729000000 103.00000000000000 -535.40503397802695
1.02427979000000 1.69367216000000 103.00000000000000 -535.47274273552296
0.95323920000000 1.68888476000000 130.01007458000001 -535.45697129401196
1.06939898000000 1.68888476000000 113.02190184000000 -535.46468275243706
1.24113868000000 1.68888476000000  92.98380285000000 -535.43379232397501
1.19356212000000 1.77806571000000 103.00000000000000 -535.44343414007801
0.75874094000000 1.73562793000000 103.00000000000000 -535.40833661730096
0.92118052000000 1.83629484000000 103.00000000000000 -535.46600520665504
0.96446195000000 1.52333449000000  83.26500565000001 -535.43535221983996
1.20210188000000 1.55640554000000 103.00000000000000 -535.43410112575896
0.96446195000000 1.66332821000000 106.58684237000000 -535.47513082312003
0.96446195000000 1.67751262000000  65.07571185000000 -535.42445648278999
0.96446195000000 1.58274031000000 136.87517631000000 -535.44691183907503
0.96446195000000 1.75629947000000  93.59112258000000 -535.47244596896201
0.83081465000000 1.72951793000000 103.00000000000000 -535.45179881299805
1.14988262000000 1.81463607000000 103.00000000000000 -535.44934024714803
1.05617626000000 1.89449357000000 103.00000000000000 -535.45671043025197
0.88261661000000 1.79231743000000 103.00000000000000 -535.46379442980003
0.96446195000000 1.84181835000000 125.56292558000000 -535.45117166217301
0.93028622000000 1.44791845000000 103.00000000000000 -535.43291154887902
1.47726584000000 1.68490912000000 103.00000000000000 -535.38856023254402
0.94382710000000 1.68888476000000 103.26907181000000 -535.47521876360395
1.45842044000000 1.58457748000000 103.00000000000000 -535.38697895421797
0.96446195000000 1.90468243000000  74.33673593000000 -535.44943484493797
0.96446195000000 1.72899713000000 106.42144632000000 -535.47437074847005
1.14452138000000 1.68888476000000  97.86082709999999 -535.45481502586699
1.15379119000000 1.68888476000000 104.40590561000000 -535.45367052098300
1.28488280000000 1.75316583000000 103.00000000000000 -535.42590155953599
0.71141396000000 1.76256557000000 103.00000000000000 -535.35841052714204
0.96446195000000 1.72306670000000 109.72556063000000 -535.47345726555000
0.80543774000000 1.68888476000000  97.86205031999999 -535.43996869498403
1.10625626000000 1.55216668000000 103.00000000000000 -535.45097372843691
1.01996096000000 1.48534347000000 103.00000000000000 -535.44543806658316
0.74792095000000 1.86714895000000 103.00000000000000 -535.38828977091396
0.96446195000000 1.69829993000000  73.76953220000000 -535.44814351946093
1.07343656000000 1.47239669000000 103.00000000000000 -535.43489157487102
1.09267797000000 1.68888476000000 132.81949476000000 -535.44175306636316
1.26678070000000 1.48629015000000 103.00000000000000 -535.40446046647196
1.17986171000000 1.68888476000000 127.87125109000000 -535.43277712138502
1.29173850000000 1.84181016000000 103.00000000000000 -535.41865441795301
1.19514679000000 1.74881132000000 103.00000000000000 -535.44457000038994
0.96446195000000 1.72355825000000  99.02784350000000 -535.47492502103103
0.96446195000000 1.63284822000000 131.52974909000000 -535.45580795923104
0.99875037000000 1.68888476000000 122.69170837000000 -535.46423565832004
0.96446195000000 1.77765698000000 110.28856276000000 -535.47014206091103
0.96446195000000 1.79127350000000 121.60909499000000 -535.46027112336492
1.03624830000000 1.79584290000000 103.00000000000000 -535.46755835815395
1.17009170000000 1.68612089000000 103.00000000000000 -535.45065962889498
0.99273860000000 1.68888476000000 115.38426620000000 -535.47064331591503
1.01655854000000 1.46837618000000 103.00000000000000 -535.43980874242300
0.96446195000000 1.77081793000000 123.32811751000000 -535.46013635251290
0.96446195000000 1.60766069000000  63.80148143000000 -535.40609440801700
1.04986770000000 1.40471485000000 103.00000000000000 -535.40660696998896
0.94416665000000 2.02401103000000 103.00000000000000 -535.44722024559496
1.04198618000000 1.62614999000000 103.00000000000000 -535.46889132729098
0.96446195000000 1.64410240000000  68.31708651000000 -535.42823245462796
0.96446195000000 1.84281086000000  71.26007156999999 -535.44744815020795
1.12219170000000 1.81763947000000 103.00000000000000 -535.45399924472599
1.13190548000000 1.94037593000000 103.00000000000000 -535.44064059695700
0.79633710000000 1.61386003000000 103.00000000000000 -535.43347893820101
0.96446195000000 1.89634363000000 114.25174619000001 -535.45638156011296
0.96446195000000 1.84448543000000  77.02923817999999 -535.45551926449605
0.96446195000000 1.57793828000000 108.37071361000000 -535.46928757010801
0.96446195000000 1.56516920000000  72.08588235000001 -535.42083844356000
0.96446195000000 2.09039881000000  87.50061005000001 -535.44140568088596
1.06921171000000 1.68888476000000 145.91467517000001 -535.42531235109595
1.11101581000000 1.82554245000000 103.00000000000000 -535.45523596001794
0.98128314000000 2.03696812000000 103.00000000000000 -535.44622068030901
1.11869325000000 1.68888476000000  82.08437139000000 -535.44735433357096
1.19749761000000 1.68137166000000 103.00000000000000 -535.44525162086495
1.17123137000000 1.54007766000000 103.00000000000000 -535.43708188585902
0.96446195000000 1.74355162000000 124.44902116999999 -535.46086384776697
0.96446195000000 1.82446708000000 107.66513664000000 -535.46763446525995
1.00317187000000 1.68888476000000 104.03323208000000 -535.47432473827200
0.89972453000000 1.82666589000000 103.00000000000000 -535.46413890341501
0.96446195000000 1.84638004000000  73.39419085000000 -535.45062234905299
0.91781922000000 1.77619822000000 103.00000000000000 -535.47031315621803
0.86508860000000 1.40056999000000 103.00000000000000 -535.39858228088201
1.11204216000000 1.86143867000000 103.00000000000000 -535.45196353944800
1.07896460000000 1.82824679000000 103.00000000000000 -535.45989400645396
1.17051460000000 1.68888476000000 128.07286690000001 -535.43431888684893
1.18365091000000 1.76894644000000 103.00000000000000 -535.44588889765498
0.96446195000000 1.70705381000000  91.67397994000000 -535.47201545712596
0.96446195000000 1.87136648000000 114.49063327000000 -535.45889943236000
0.87668594000000 1.68888476000000 104.93861683999999 -535.46675757542505
0.96446195000000 1.62493190000000 104.01424880000000 -535.47368489652695
0.96446195000000 1.69637308000000  85.49490689000000 -535.46626101111406
1.31621898000000 1.68888476000000  94.13376402000000 -535.41867501638399
1.38188282000000 1.55961941000000 103.00000000000000 -535.39822039748799
1.24413182000000 1.68888476000000 111.63474370000000 -535.43366551035297
0.96446195000000 1.79771528000000  73.11766201000000 -535.45083961131695
1.05485060000000 1.42551501000000 103.00000000000000 -535.41723979947994
0.96446195000000 1.89372673000000 101.98520024000000 -535.46284079172096
0.97797367000000 1.67278413000000 103.00000000000000 -535.47534499864798
0.96446195000000 1.52283414000000 101.94511987999999 -535.45816076316203
1.00540346000000 1.92284630000000 103.00000000000000 -535.45833733497000
0.90099346000000 1.69267000000000 103.00000000000000 -535.47129045664099
0.96446195000000 1.67112579000000  94.81236081999999 -535.47311596661700
1.09226830000000 1.68888476000000 104.51353899000000 -535.46419724454802
0.93883788000000 1.92961770000000 103.00000000000000 -535.45786951134596
0.96446195000000 1.82071889000000  99.51863650000000 -535.46988313507904
0.96446195000000 1.60574304000000 102.55102929000000 -535.47193238442901
0.99192657000000 1.68888476000000  90.80745724000001 -535.47047423856600
0.96446195000000 1.65474845000000  95.67536598000000 -535.47287231715291
0.96446195000000 1.64862796000000 124.96762015000000 -535.46348401093292
0.76187528000000 1.68888476000000  64.72812482000001 -535.35659407221203
0.97606009000000 1.73055422000000 103.00000000000000 -535.47479250121205
0.96446195000000 1.94067014000000  81.20851911000000 -535.45347142454295
1.07083683000000 1.68888476000000  97.90161885000001 -535.46672393070799
0.96446195000000 1.92921156000000 117.92091462000000 -535.44963040967502
0.96446195000000 1.65651281000000  95.90757142000000 -535.47308432512796
1.36352117000000 1.68888476000000 102.81440520000000 -535.41093036203699
1.07754552000000 1.68888476000000 111.97914349000000 -535.46409713230696
0.96446195000000 1.53601932000000  88.58016257000000 -535.44832803021995
0.87030010000000 1.68888476000000 109.48777649000000 -535.46423576263396
1.07030822000000 1.72549119000000 103.00000000000000 -535.46700098314500
0.87838159000000 1.62466075000000 103.00000000000000 -535.46532560778803
0.96446195000000 1.57348067000000  79.18256104000000 -535.44058942029699
1.00981251000000 1.68888476000000  93.75134251000000 -535.47140940363897
0.96446195000000 1.86417389000000  95.94948581000000 -535.46614625371706
1.43961231000000 1.79426042000000 103.00000000000000 -535.39180827779296
1.07503483000000 2.04029921000000 103.00000000000000 -535.43810022938317
1.06929095000000 1.62488030000000 103.00000000000000 -535.46541429092599
1.08395025000000 1.48250775000000 103.00000000000000 -535.43688571869700
0.84595900000000 1.94857979000000 103.00000000000000 -535.43814250992295
0.69428534000000 1.51511273000000 103.00000000000000 -535.32182233811295
0.96446195000000 1.72108496000000  99.58487088000000 -535.47505966086999
0.96446195000000 1.80711507000000 124.04118440000001 -535.45627306731706
0.88074000000000 1.68888476000000  77.51038728000000 -535.44542688625597
0.96446195000000 1.81967267000000 108.97705413000000 -535.46744584234500
0.97968284000000 1.68888476000000  64.51666924000000 -535.42491750252304
1.34057799000000 1.68888476000000 113.35669122000000 -535.41287367647794
0.96446195000000 1.68492681000000 125.29683009000000 -535.46270979583801
0.94490586000000 1.84532093000000 103.00000000000000 -535.46685969187604
0.99710915000000 1.68888476000000 113.12783254000000 -535.47179649762302
1.35842899000000 1.79603111000000 103.00000000000000 -535.40814160864898
0.84756893000000 2.01047779000000 103.00000000000000 -535.43132037983298
0.85853236000000 1.95137558000000 103.00000000000000 -535.44187119259198
1.07538337000000 1.68888476000000 109.63418827000000 -535.46543792186105
1.09537676000000 1.69633052000000 103.00000000000000 -535.46380531413001
1.21603243000000 1.68888476000000  90.08769393999999 -535.43710113089298
0.90434404000000 1.91472975000000 103.00000000000000 -535.45602808069600
0.96446195000000 1.45470390000000  91.77225149000000 -535.42437056153199
0.99736405000000 1.68888476000000  99.25041417000000 -535.47431031803296
0.96446195000000 1.81200248000000 116.58330850999999 -535.46309071356995
0.96446195000000 1.60581151000000 109.93103153000000 -535.47180964866800
0.91520422000000 1.76511090000000 103.00000000000000 -535.47070023933998
0.96446195000000 1.67656657000000 125.37334577000000 -535.46282730392898
0.86021947000000 1.76035853000000 103.00000000000000 -535.46039685746803
0.96446195000000 1.47473111000000 106.13228977000000 -535.44593063200000
0.96446195000000 1.68310914000000 146.00764680000000 -535.43408657176599
1.13418866000000 1.68397428000000 103.00000000000000 -535.45729656678600
0.75263968000000 1.68888476000000 105.28927932000001 -535.40441536941296
0.85199381000000 1.42609500000000 103.00000000000000 -535.40899244671516
0.96446195000000 1.64281739000000 105.08095489999999 -535.47467224285117
1.01517594000000 1.73580803000000 103.00000000000000 -535.47266466402095
0.96446195000000 1.79767753000000  98.38383370000000 -535.47151960771600
1.10781707000000 1.68888476000000  81.17609126000001 -535.44790953153802
0.98601212000000 1.68888476000000  60.45685441000000 -535.41249173029803
0.96722674000000 1.52519604000000 103.00000000000000 -535.45918543437097
1.00049905000000 1.68888476000000 116.12733162000001 -535.46971326133598
0.96446195000000 1.80742151000000 109.26794293000000 -535.46835163983997
1.33296931000000 1.68888476000000 120.81364847000000 -535.40923237924301
0.96446195000000 1.98469786000000 120.28203894000001 -535.44102080227901
0.82492968000000 1.68888476000000  57.40886525000000 -535.36897606174898
0.96446195000000 1.63245787000000 102.05290380000000 -535.47391450487498
1.18383877000000 1.78144680000000 103.00000000000000 -535.44514920948302
1.00139031000000 1.68888476000000 100.57532540000000 -535.47431675231917
0.96446195000000 1.84332838000000 115.06442815000000 -535.46133446287104
1.13885929000000 1.45793009000000 103.00000000000000 -535.41902673592301
1.02284717000000 1.68888476000000 126.72085855000000 -535.45812680169502
1.12565173000000 1.68888476000000 137.60331481000000 -535.42952706950200
0.84606889000000 1.68888476000000  94.03081616000000 -535.45563435220492
1.04615210000000 1.89833265000000 103.00000000000000 -535.45745990000398
1.36575140000000 1.70551991000000 103.00000000000000 -535.41038141654894
0.96446195000000 1.84669910000000  84.80335482000000 -535.46295994776199
0.95392093000000 1.68888476000000 132.32762170999999 -535.45399233251806
0.96446195000000 1.66710503000000 142.61174491000000 -535.43995517201597
1.03417786000000 1.77907257000000 103.00000000000000 -535.46886176440205
1.27305364000000 1.66459904000000 103.00000000000000 -535.42943216809203
0.89110223000000 1.70801486000000 103.00000000000000 -535.46949620102703
0.80062055000000 1.68888476000000  80.87269027000001 -535.42115065007204
1.11437647000000 1.58323618000000 103.00000000000000 -535.45441151758700
0.96446195000000 1.85500061000000 107.12777144000000 -535.46501910150891
0.96446195000000 1.78135198000000 102.74494163999999 -535.47240802074896
0.92506121000000 1.65991874000000 103.00000000000000 -535.47370683537201
1.09982466000000 1.68888476000000  74.38332874000000 -535.43869053956803
0.95912798000000 1.65829881000000 103.00000000000000 -535.47517328822892
0.93896650000000 1.54893387000000 103.00000000000000 -535.46363365364300
0.91541315000000 1.40227383000000 103.00000000000000 -535.40839497703098
1.06497035000000 1.68888476000000  94.10153047000000 -535.46597793166495
0.96446195000000 1.69232317000000  72.94635452000000 -535.44592475013405
0.96446195000000 1.60150654000000 105.22772653000000 -535.47188844497498
1.24605549000000 1.68888476000000 115.61109050000000 -535.43102682187498
0.96647664000000 1.53100496000000 103.00000000000000 -535.46051409871916
0.96446195000000 1.62339392000000  62.50196068000000 -535.40544270213104
0.94316985000000 1.68888476000000  92.10027520000000 -535.47147988319205
1.03159423000000 1.67264999000000 103.00000000000000 -535.47191128134602
0.85488350000000 1.68888476000000  93.14305997000000 -535.45790896816595
1.19738190000000 1.68888476000000  83.48554433000000 -535.43481027810196
0.93486317000000 1.50031958000000 103.00000000000000 -535.45195982968596
0.96446195000000 1.71949542000000  80.93395769999999 -535.46140506189795
1.01035393000000 1.68888476000000 112.65572844000000 -535.47120269821403
1.40189484000000 1.62826264000000 103.00000000000000 -535.40144175619901
0.96446195000000 1.86763045000000  89.42080912999999 -535.46416838659104
1.00676208000000 1.68888476000000 129.37760925000001 -535.45623286500404
0.96446195000000 1.55305747000000  93.30566181000000 -535.45835136908795
1.08697920000000 1.68888476000000 128.49620522999999 -535.44819213668200
1.01674206000000 1.68888476000000 112.46448493000000 -535.47080921588997
0.96446195000000 1.55968916000000 113.75164746999999 -535.46567650992404
0.97627840000000 1.68888476000000 111.03170369000000 -535.47365868953500
0.79809770000000 2.01120242000000 103.00000000000000 -535.40863123153201
0.96446195000000 1.79512913000000 101.15824046000000 -535.47166993101916
0.96446195000000 1.53636281000000 141.69069442000000 -535.43581681251101
0.94449436000000 1.93091039000000 103.00000000000000 -535.45802907797201
1.11592230000000 1.54500958000000 103.00000000000000 -535.44803696707197
1.02043844000000 1.75121647000000 103.00000000000000 -535.47161298756896
1.18410704000000 1.68888476000000  89.61765004000000 -535.44309295294897
0.93319431000000 1.68888476000000 117.92578256000000 -535.46862169534404
0.98032908000000 1.68888476000000  79.64591553000000 -535.45793204429117
1.04394915000000 1.68888476000000 110.94268889000000 -535.46889615829900
1.18968787000000 1.68325570000000 103.00000000000000 -535.44681949451103
1.15317255000000 1.68888476000000  74.53497178000001 -535.43071882939898
0.96319421000000 1.56059083000000 103.00000000000000 -535.46623141596399
0.87667291000000 1.76422950000000 103.00000000000000 -535.46435813779601
0.96446195000000 1.68154343000000  88.74472405000000 -535.46900350724695
0.96446195000000 1.63066048000000 125.32568030000000 -535.46286086919395
0.96446195000000 1.70557168000000  65.80814296000000 -535.43024633232994
1.14769214000000 1.68888476000000  72.89146168000001 -535.42886853469497
0.92140432000000 1.68888476000000 102.24265764000000 -535.47371670223401
1.02556826000000 1.68888476000000 115.59033174000000 -535.46816117241497
0.95327661000000 1.68888476000000 123.77443298999999 -535.46411977832804
0.96446195000000 1.91844103000000 107.31046007000000 -535.45825025881300
1.50591122000000 1.72228127000000 103.00000000000000 -535.38273396933300
1.37307429000000 1.68888476000000  88.94113590000001 -535.40364442956002
1.21921077000000 1.67810273000000 103.00000000000000 -535.44083169812598
0.96446195000000 1.72755482000000  83.47899843000000 -535.46482331626396
1.12108523000000 1.49802330000000 103.00000000000000 -535.43583670053295
0.79917827000000 1.68888476000000 121.68116365000000 -535.42859340153495
0.96446195000000 1.71906202000000  82.60489858000000 -535.46358088518195
0.96446195000000 1.60934291000000 108.70604081000000 -535.47233696654303
0.93115658000000 1.94383492000000 103.00000000000000 -535.45574025412600
1.11887191000000 1.68888476000000 104.93100989000000 -535.45984194732716
0.96446195000000 1.96574379000000 117.25920137999999 -535.44599523219699
0.96446195000000 1.82988144000000 115.77904667999999 -535.46208157815295
1.07096888000000 1.69376197000000 103.00000000000000 -535.46738481276805
0.94588371000000 2.07854971000000 103.00000000000000 -535.44087322725204
0.93499171000000 1.68888476000000 133.33061556000001 -535.45197265100398
0.94237899000000 1.68888476000000 102.47775987000000 -535.47514941873396
0.96446195000000 1.53562755000000  69.58196697000000 -535.40358447260303
0.77498423000000 1.76996633000000 103.00000000000000 -535.41891541055202
0.98880136000000 1.68888476000000 121.20725806999999 -535.46616423054797
1.14472410000000 1.90791563000000 103.00000000000000 -535.44181861543802
1.19327599000000 1.68888476000000  87.70666066000000 -535.43975652524398
0.87684058000000 1.83875920000000 103.00000000000000 -535.45868359602298
1.34477260000000 1.68888476000000  85.35653762000000 -535.40647520992002
0.96446195000000 1.90291766000000  93.95378052000000 -535.46232675187605
1.20241703000000 1.68888476000000 104.97663274999999 -535.44417038187396
0.98652520000000 1.68888476000000 103.23420719000001 -535.47520008926199
0.96446195000000 1.78082906000000  79.61505452000000 -535.46030551506203
0.96446195000000 1.74219430000000 120.62012036000000 -535.46488043693296
1.01607572000000 1.68888476000000 143.01072307999999 -535.43602114376995
0.96446195000000 1.62871961000000 103.51542851000001 -535.47388560626905
1.24983844000000 1.85088733000000 103.00000000000000 -535.42663325817000
0.96446195000000 1.81555383000000 111.55056974000000 -535.46638833644295
0.96446195000000 1.71215237000000  69.35719183000000 -535.43979043771196
0.88925459000000 1.82358806000000 103.00000000000000 -535.46260994863098
0.96446195000000 1.61304655000000 106.85459640000001 -535.47284801137005
1.05770549000000 1.66494307000000 103.00000000000000 -535.46880831236604
0.94511761000000 1.89866075000000 103.00000000000000 -535.46156864429599
1.09607060000000 1.68888476000000 111.34736839000000 -535.46163411939483
0.87974565000000 1.68888476000000  92.91708328000000 -535.46417438997798
1.03696781000000 1.86089997000000 103.00000000000000 -535.46211278098497
0.99209886000000 1.72401822000000 103.00000000000000 -535.47446881150699
0.77264823000000 1.71386024000000 103.00000000000000 -535.41997048538701
0.96446195000000 1.55257385000000 113.30549490999999 -535.46478392799690
0.95482203000000 1.68888476000000  97.76307978000000 -535.47471489392399
1.13885786000000 1.59889071000000 103.00000000000000 -535.45197752021204
1.01536137000000 1.68888476000000  82.14339056000000 -535.46001887251100
0.97067090000000 1.54968566000000 103.00000000000000 -535.46426387277290
0.96446195000000 1.76097255000000 108.01690591000001 -535.47227083709299
0.91074594000000 2.15838245000000 103.00000000000000 -535.42856721644205
0.96446195000000 1.96460357000000  89.80227257999999 -535.45535004324802
1.15621431000000 1.68888476000000 112.00045894000000 -535.45092375602098
0.96446195000000 1.96003073000000 109.20973479000000 -535.45248883822717
1.03720481000000 1.68888476000000 106.45698865999999 -535.47110495986101
1.12082166000000 1.68888476000000 131.73004177000001 -535.43866044511117
1.07151823000000 1.68888476000000 116.81302300000000 -535.46194507598500
0.96727704000000 1.68888476000000 107.60811506000000 -535.47500545278695
1.27095340000000 1.58835318000000 103.00000000000000 -535.42466175683705
1.26726137000000 1.50474271000000 103.00000000000000 -535.40971364289203
0.97136730000000 1.69167377000000 103.00000000000000 -535.47558399748698
1.02265994000000 1.68738545000000 103.00000000000000 -535.47288755226316
0.90597806000000 1.72757044000000 103.00000000000000 -535.47129026377900
1.29890613000000 1.68888476000000  94.43393424000000 -535.42244948410496
0.96446195000000 1.92307453000000 127.02887579999999 -535.44068106418194
1.03266585000000 1.47623876000000 103.00000000000000 -535.44117057633696
0.90846194000000 1.82312899000000 103.00000000000000 -535.46569721067101
0.84343658000000 1.68888476000000  79.71015523000000 -535.43866534046299
0.92621603000000 1.78202779000000 103.00000000000000 -535.47072851410701
1.04000735000000 1.65461038000000 103.00000000000000 -535.47057278778800
0.94691390000000 1.68888476000000  87.62438954000000 -535.46783895065096
0.75786127000000 1.68888476000000  82.87953661000000 -535.39464881611104
0.96446195000000 1.47319932000000 106.20318913000000 -535.44542510250892
1.07470788000000 1.53467206000000 103.00000000000000 -535.45232703645399
1.04318243000000 1.68026202000000 103.00000000000000 -535.47079335553406
0.96446195000000 1.70665305000000  74.29842422999999 -535.44983056439116
0.69936740000000 1.86608102000000 103.00000000000000 -535.33340229363500
0.94174007000000 1.68888476000000  63.08564651000000 -535.41871093252598
1.15683888000000 1.68888476000000  93.59447023000000 -535.45083793458900
0.80487194000000 1.68888476000000  94.84817685000000 -535.43831360456704
1.39572381000000 1.68888476000000  88.97217623000000 -535.39903798945500
0.96022601000000 1.68888476000000  67.25852232000000 -535.43194422892998
0.96446195000000 1.54268451000000  75.73616375000000 -535.42406747336895
1.00849721000000 1.68888476000000 127.60880215000000 -535.45825279813096
1.45626246000000 1.78657058000000 103.00000000000000 -535.38905372903798
1.08037716000000 1.68888476000000  74.76205314000001 -535.44192545595797
0.96446195000000 1.68955214000000 105.61393407000000 -535.47542602574799
1.13939518000000 1.68733424000000 103.00000000000000 -535.45638558525400
0.87627810000000 1.68888476000000  71.48291368000000 -535.43167323165801
0.96911792000000 1.61949176000000 103.00000000000000 -535.47315689846096
0.82641159000000 1.68888476000000 101.61780215000000 -535.45079891354396
0.76950934000000 1.83234394000000 103.00000000000000 -535.40980920385198
1.10387384000000 1.68888476000000 101.23301892000001 -535.46240949288403
1.50510886000000 1.68888476000000 102.00286348000000 -535.38338264144500
1.17243041000000 1.51213470000000 103.00000000000000 -535.43044765936600
1.12013433000000 1.68888476000000  65.11573706000000 -535.41742701838700
1.02888726000000 1.86334967000000 103.00000000000000 -535.46265310043691
0.96446195000000 1.60331560000000 119.33608275000000 -535.46698176702500
0.93393520000000 1.68888476000000 105.46329382000000 -535.47454149231305
1.04336812000000 1.68888476000000 106.72471056000001 -535.47037964289802
1.08441409000000 1.68888476000000 112.70162295999999 -535.46272433375395
0.97065214000000 1.68888476000000 139.47027281000001 -535.44385091058803
0.96446195000000 1.78156807000000  66.64786601000000 -535.43807048439999
0.96446195000000 1.61275038000000  90.39618367000000 -535.46511600066003
0.84694522000000 1.81194650000000 103.00000000000000 -535.45262236168799
1.12495839000000 1.68888476000000 119.66684979999999 -535.45129823948605
0.96446195000000 1.89628457000000  82.07746371000000 -535.45758157161299
0.96446195000000 1.82457319000000  69.17641055999999 -535.44403485523503
0.90109352000000 1.86271801000000 103.00000000000000 -535.46099750829001
0.92929929000000 1.77785922000000 103.00000000000000 -535.47124725964795
0.87485489000000 1.62219506000000 103.00000000000000 -535.46438261082801
1.12230376000000 1.68888476000000 116.82021688000000 -535.45402852585198
0.96446195000000 1.58448047000000 107.22510930999999 -535.47013078486896
0.92027400000000 1.68888476000000  76.71691908000000 -535.45037029565799
0.96446195000000 1.53689144000000 110.05898963999999 -535.46276928793293
0.96446195000000 1.44144316000000  90.88648966000000 -535.41651878804703
0.96446195000000 1.55888169000000  83.45372802000000 -535.44557926341292
0.96446195000000 1.88437792000000 120.97290897000001 -535.45172350665996
1.11095595000000 1.68888476000000 100.58724189000000 -535.46119046565002
1.14389312000000 1.62726960000000 103.00000000000000 -535.45350343135499
0.90671681000000 1.68888476000000  90.39136207999999 -535.46696945081101
0.81515367000000 2.06834225000000 103.00000000000000 -535.41085260638897
0.94284108000000 1.84324207000000 103.00000000000000 -535.46695458593297
0.84297861000000 1.68888476000000  75.99014433000001 -535.43164271173100
1.08354908000000 1.68888476000000  82.48738871000000 -535.45315772413096
1.04227140000000 1.68888476000000 110.46425553000000 -535.46929144454316
0.96446195000000 1.85490990000000 121.55825722000000 -535.45426035205298
0.96446195000000 1.89991301000000  79.31183765000000 -535.45498937436491
0.98629636000000 1.86312484000000 103.00000000000000 -535.46535653892602
0.96446195000000 1.65196198000000 111.26944549000000 -535.47359732462201
0.76007599000000 1.58645038000000 103.00000000000000 -535.40591219040198
1.45962492000000 1.68888476000000 107.89199102000001 -535.39140129148802
0.77848603000000 1.68888476000000  82.02075596000000 -535.40909736749404
0.96446195000000 1.52334922000000 117.06704525000001 -535.45813151855305
0.96446195000000 2.02393740000000 110.16619793000000 -535.44438695790302
1.03356114000000 1.68888476000000 123.08881782000000 -535.46102617657300
0.86382871000000 1.68888476000000  59.90174190000000 -535.39333289207502
0.95672846000000 1.68888476000000  99.85713991000000 -535.47528054924203
1.07280415000000 1.68888476000000 134.98661102000000 -535.44165116952399
1.11661381000000 1.63276254000000 103.00000000000000 -535.45865444446997
0.86417569000000 1.68888476000000  78.78089704000000 -535.44360406227599
1.12984907000000 1.68888476000000 102.16271266000000 -535.45808604385297
0.85190537000000 1.84657906000000 103.00000000000000 -535.45114996553605
0.97889994000000 1.66125905000000 103.00000000000000 -535.47507924327203
1.05886613000000 1.68888476000000 116.88698588000000 -535.46356607920802
1.12035697000000 1.68888476000000 138.55360317000000 -535.42900083902896
1.05701968000000 1.68888476000000  79.16015136000000 -535.45191105476397
0.96446195000000 1.58489352000000  97.51730382000000 -535.46740423403799
0.96446195000000 1.60676990000000 112.80595432000000 -535.47095219627795
0.96446195000000 1.62505402000000  88.16948632000000 -535.46408397430696
0.96446195000000 1.69162122000000  94.16830822000000 -535.47330882970505
0.97459378000000 1.59855021000000 103.00000000000000 -535.47119207915296
0.96446195000000 1.50669661000000  89.86901997000000 -535.44164861567594
0.96446195000000 1.72543984000000  86.00095123000000 -535.46750697223104
1.17578122000000 1.68888476000000 108.16241459000000 -535.44873839092804
0.96446195000000 2.11705297000000 119.64900912000000 -535.42675095108598
0.77558451000000 1.52788730000000 103.00000000000000 -535.40785139763796
0.90693426000000 1.68888476000000  70.80200327000000 -535.43601450709798
0.93420461000000 1.96803424000000 103.00000000000000 -535.45318755467395
1.18599234000000 1.68888476000000  88.56169923000000 -535.44189687587595
1.11895928000000 1.68888476000000 109.45227487000000 -535.45869506689917
0.96446195000000 1.84305256000000 107.51475968000000 -535.46599800283002
1.26174438000000 1.68888476000000  86.76963705000000 -535.42505742192304
1.22856621000000 1.68888476000000 103.97135618000000 -535.43896161132398
0.82259337000000 1.66232286000000 103.00000000000000 -535.44905588648203
1.30376103000000 1.68888476000000 107.06101086000000 -535.42286190725895
0.87739189000000 1.68888476000000 118.72840925000000 -535.46043829492203
0.91678623000000 1.84001064000000 103.00000000000000 -535.46521207390401
0.97801891000000 1.59218320000000 103.00000000000000 -535.47041650238702
0.99509817000000 1.68888476000000 100.17259623000000 -535.47460319078891
1.18059827000000 1.68888476000000 117.41735950000000 -535.44287319752095
1.15279327000000 1.68888476000000  87.63276637000000 -535.44737509876404
0.95425022000000 1.68888476000000 112.85660202000000 -535.47281161351293
0.96446195000000 1.63768356000000  96.21693572000000 -535.47213121550999
0.96446195000000 1.87099651000000  67.14424388000000 -535.43999623440095
1.02490015000000 1.68888476000000  92.49648331000000 -535.46946589059201
0.91124580000000 2.03098685000000 103.00000000000000 -535.44345942291397
1.25529517000000 1.67551007000000 103.00000000000000 -535.43335465027917
0.76543747000000 1.68888476000000 100.58863205000000 -535.41476759443117
0.96446195000000 1.78666594000000  95.31063712000000 -535.47169198841198
1.08550027000000 1.87045588000000 103.00000000000000 -535.45520510443998
0.96446195000000 1.71174714000000 111.70067383999999 -535.47293470156296
0.96446195000000 1.74379475000000  91.62528484000001 -535.47179813115099
1.20915250000000 1.68888476000000 120.96452947000000 -535.43430140227804
0.81261257000000 1.68888476000000  89.59251454000000 -535.43843674515097
0.86406648000000 1.68888476000000 105.76379093000000 -535.46357922770403
0.96446195000000 1.61450277000000 148.82872237999999 -535.43105461723098
0.96446195000000 2.05574881000000  85.62376487000000 -535.44462571818303
1.12156044000000 1.68888476000000 116.59925373999999 -535.45431676165595
0.96446195000000 1.52426393000000 135.39196279000001 -535.44209435207904
0.96446195000000 1.86599177000000 116.77929995000000 -535.45761655887600
1.22493945000000 1.63810023000000 103.00000000000000 -535.43834667336898
0.96446195000000 1.77379548000000 102.94780774000000 -535.47284915202897
0.96960702000000 1.68888476000000  95.77772521999999 -535.47404037098204
0.87502314000000 1.86577703000000 103.00000000000000 -535.45565819556396
0.92133715000000 1.93436674000000 103.00000000000000 -535.45593280201001
1.18502034000000 1.68888476000000 123.25440441000001 -535.43685827874299
0.98085246000000 1.68888476000000 122.83715352000000 -535.46488816705698
0.67180133000000 1.85122098000000 103.00000000000000 -535.29269897164602
0.98584484000000 1.84707058000000 103.00000000000000 -535.46687266827598
1.27219162000000 1.62236045000000 103.00000000000000 -535.42759712806901
0.96446195000000 1.63224845000000 132.36841777000001 -535.45474240706801
0.86820208000000 1.68888476000000  83.76500024000001 -535.45235801496892
1.02129787000000 1.83928120000000 103.00000000000000 -535.46550536240704
0.96446195000000 1.68387036000000  80.90297008000000 -535.45957343316400
0.94065473000000 1.68888476000000  92.06321299000000 -535.47133348376599
1.00127265000000 1.89871780000000 103.00000000000000 -535.46113977896800
0.75598297000000 1.69491812000000 103.00000000000000 -535.40728820329502
0.90287608000000 1.68888476000000  77.43607734000000 -535.44941693511498
0.96959117000000 1.68888476000000  71.86117621000000 -535.44333953704404
1.09826226000000 1.68888476000000  78.53177583000000 -535.44562970259005
1.21118350000000 1.68888476000000  89.41401571999999 -535.43758186309503
0.96446195000000 1.52081161000000  95.01557515000000 -535.45237919846295
1.14304843000000 1.60327537000000 103.00000000000000 -535.45166694038198
0.96446195000000 1.51255057000000  84.99240119000000 -535.43523603629603
1.00337205000000 1.68888476000000 109.04534774000000 -535.47326972448604
0.73999588000000 1.66344806000000 103.00000000000000 -535.39279969034317
0.93375333000000 1.68888476000000 104.27536889000000 -535.47465485411499
1.01185935000000 1.68888476000000 103.86498014999999 -535.47373893521797
0.87464887000000 1.68888476000000 125.59283800999999 -535.45328875529117
1.08392023000000 1.89493029000000 103.00000000000000 -535.45302286216099
0.96446195000000 1.48633704000000 117.85872672000001 -535.44888807873292
1.34200501000000 1.77029003000000 103.00000000000000 -535.41309798909595
1.00722092000000 1.68888476000000  91.98235406000001 -535.47048941747403
0.96446195000000 1.88585139000000  93.84222269000000 -535.46391766307102
0.90851981000000 1.68888476000000 101.73244098000001 -535.47227406976401
0.95769560000000 1.64217818000000 103.00000000000000 -535.47454132095595
0.86992808000000 1.81103122000000 103.00000000000000 -535.45944436463799
0.98730720000000 1.71620594000000 103.00000000000000 -535.47486598626801
0.84553558000000 1.48133307000000 103.00000000000000 -535.42995827424500
0.99989552000000 1.79418725000000 103.00000000000000 -535.47054439481883
1.36398088000000 1.79626156000000 103.00000000000000 -535.40697631106298
0.96446195000000 1.59952821000000  61.95324706000000 -535.39702516190096
1.11752948000000 1.68888476000000  99.71053302000000 -535.45996656177203
0.96792308000000 1.73298976000000 103.00000000000000 -535.47480909732997
1.32235763000000 1.68888476000000 114.60996394999999 -535.41591167026900
1.04923028000000 1.68888476000000  60.92840141000000 -535.41281436007705
0.91238949000000 1.75391367000000 103.00000000000000 -535.47098336599504
1.09838701000000 1.68888476000000 105.56732001000000 -535.46310630308301
0.91182675000000 1.68888476000000 108.48894405999999 -535.47190870797499
0.96446195000000 1.55895387000000 130.83181943000000 -535.45224910401498
1.01313701000000 1.68888476000000  62.35207875000000 -535.41843717444704
1.07241727000000 1.50563232000000 103.00000000000000 -535.44555003400501
0.96446195000000 1.49475932000000 117.72809281000001 -535.45123494360598
0.96446195000000 1.93681021000000  96.50271794000000 -535.45901775683899
0.96446195000000 1.93183549000000 111.72876058999999 -535.45418729040296
0.94172402000000 1.55343308000000 103.00000000000000 -535.46457566002800
1.08497572000000 1.68671760000000 103.00000000000000 -535.46537983160295
1.12118055000000 1.68888476000000 105.74280499000000 -535.45932656899902
0.96446195000000 1.56565330000000 120.86183876000000 -535.46247186365292
1.11744255000000 1.68888476000000  94.45630005000000 -535.45826921996400
0.76192287000000 1.68888476000000  74.73231732000001 -535.38328827749694
0.92790283000000 1.68888476000000  96.19176163000000 -535.47283600096000
0.96446195000000 1.72386078000000 109.11337387000000 -535.47367880928505
0.96446195000000 1.88832267000000 118.45403142000001 -535.45373003995701
1.17498739000000 1.68888476000000 119.80111626999999 -535.44202619569398
0.96446195000000 1.70525709000000  83.78561994000000 -535.46459780867701
0.83754513000000 1.75589445000000 103.00000000000000 -535.45319020343300
0.88544233000000 1.68565017000000 103.00000000000000 -535.46866704272395
1.16604877000000 1.82873965000000 103.00000000000000 -535.44523583215903
0.96446195000000 1.89766285000000  71.84703703000000 -535.44658340680098
1.00035132000000 1.74429044000000 103.00000000000000 -535.47333542730496
1.09389912000000 1.68888476000000 109.73458470000000 -535.46266077474797
0.96446195000000 1.72699560000000  90.68848994000000 -535.47141284749398
1.03966023000000 1.89910679000000 103.00000000000000 -535.45806481951604
1.03022504000000 1.65578239000000 103.00000000000000 -535.47162140212004
1.16050217000000 1.68888476000000  82.36782134000001 -535.44049194131901
0.96446195000000 1.68981975000000 118.95491559000000 -535.46868277125498
0.96446195000000 1.64561350000000  96.94627654999999 -535.47301868709917
0.96446195000000 1.91296777000000 108.98453895999999 -535.45799331761202
1.23630111000000 1.68888476000000  83.15131384999999 -535.42670382792801
0.96446195000000 1.63252495000000 104.67247046999999 -535.47417463441002
0.99230170000000 1.68074613000000 103.00000000000000 -535.47492397660301
0.96446195000000 1.79666202000000 103.46617042000000 -535.47123644910505
0.96446195000000 1.89619627000000  95.00229985999999 -535.46309559144890
0.88557390000000 1.68888476000000 112.27824090999999 -535.46636032058700
0.96446195000000 1.53369969000000 145.41389104000001 -535.43038723280802
0.86839787000000 1.68888476000000  72.92960819000000 -535.43303928781290
1.03003655000000 1.68888476000000  74.14216648000000 -535.44594308673300
1.22344462000000 1.68888476000000  84.69257313000000 -535.43092048676704
0.90457625000000 1.68888476000000  73.06789142000000 -535.44088437929997
1.10465414000000 1.79888724000000 103.00000000000000 -535.45825787439503
1.04325858000000 1.55562823000000 103.00000000000000 -535.46040071625896
0.96135897000000 1.68888476000000  77.75978191000000 -535.45480150072001
0.96446195000000 1.91202517000000 115.74139980000000 -535.45345645491898
0.96446195000000 1.78205672000000  72.41842479000000 -535.44951776698895
0.96446195000000 1.97543082000000 102.66338502000001 -535.45362245267404
0.96446195000000 1.91695567000000  77.47076962000000 -535.45209318352499
1.17407682000000 1.68888476000000 107.64989790000000 -535.44921489061699
0.96446195000000 2.01215646000000 100.92184482000000 -535.44986071337496
0.96446195000000 1.69240169000000 110.63783209000000 -535.47391641976901
0.96446195000000 1.49169231000000  72.85968224000000 -535.39640218858403
0.75978926000000 1.68888476000000 131.03597016000001 -535.39152765406891
0.93818206000000 1.68888476000000 127.83948097000000 -535.45910398995898
0.96446195000000 1.61813367000000  76.16556308000000 -535.44311949717292
0.96446195000000 1.60200273000000  89.25112665000000 -535.46242172811503
0.91132441000000 1.68888476000000 118.80163294000000 -535.46598156505297
0.96446195000000 1.95088497000000 113.06796911000001 -535.45105970753605
0.99441746000000 1.82753201000000 103.00000000000000 -535.46825013929697
0.96467324000000 1.84100847000000 103.00000000000000 -535.46772080791402
0.96446195000000 1.49759970000000 120.92531422000000 -535.45026666490799
1.35309919000000 1.68888476000000 110.41549142000000 -535.41164450362203
0.94095704000000 1.85001023000000 103.00000000000000 -535.46623469626297
0.91398437000000 1.54964800000000 103.00000000000000 -535.46185251649797
1.20355814000000 1.68888476000000 107.46920015000001 -535.44345375493901
0.80952860000000 1.68888476000000  96.74735544000001 -535.44166301186704
0.78533891000000 1.93461141000000 103.00000000000000 -535.40994987790395
1.32720672000000 1.75391715000000 103.00000000000000 -535.41698822892295
0.89456167000000 1.68888476000000  85.84665104000000 -535.46059349552695
0.91602505000000 1.81284541000000 103.00000000000000 -535.46746563639897
1.14672122000000 1.74840861000000 103.00000000000000 -535.45385399392001
0.96446195000000 1.60659091000000 105.99673713999999 -535.47236430279395
0.98579237000000 1.68914685000000 103.00000000000000 -535.47523017384196
0.96446195000000 1.66822281000000  81.78918733000000 -535.45972697142497
1.04735270000000 1.60333163000000 103.00000000000000 -535.46638041855397
0.96446195000000 1.77226157000000 121.78786325000000 -535.46163488046602
1.31526220000000 1.67806437000000 103.00000000000000 -535.42086038051002
0.98189715000000 1.45903966000000 103.00000000000000 -535.43824195275101
1.17617841000000 1.56884568000000 103.00000000000000 -535.44117761166603
0.96446195000000 1.95667404000000 117.18379890000000 -535.44711559017196
1.30850105000000 1.68888476000000  83.37320011000000 -535.41206664675497
0.84774977000000 1.65919206000000 103.00000000000000 -535.45861732123205
1.00168877000000 1.68888476000000 105.41423675999999 -535.47426912979199
1.26501168000000 1.79124570000000 103.00000000000000 -535.42801215418001
0.97333400000000 1.69541002000000 103.00000000000000 -535.47554079186091
1.19317272000000 1.68888476000000  93.84564619000000 -535.44397466585201
1.12239768000000 1.68888476000000 125.01500660000001 -535.44651643309305
1.04977444000000 1.68888476000000 104.76584733000000 -535.46997493501397
0.94118927000000 1.45777200000000 103.00000000000000 -535.43762040896604
1.07644675000000 1.68888476000000 120.15496969000000 -535.45854297009998
0.96446195000000 1.88900679000000 114.29995362000000 -535.45714945141901
0.96446195000000 1.58188034000000  89.35216769000000 -535.45936406097405
0.94579852000000 2.08262760000000 103.00000000000000 -535.44039189672003
0.82991225000000 1.47246849000000 103.00000000000000 -535.42118311558795
1.23585263000000 1.68888476000000 117.68864741000000 -535.43164291940695
1.12424231000000 1.68888476000000  81.04619877000000 -535.44512781688297
0.98388256000000 1.51546862000000 103.00000000000000 -535.45642857861606
1.06198659000000 1.68888476000000  94.60758210000000 -535.46661802083099
0.96446195000000 1.83473005000000  73.12376800000000 -535.45049862212397
1.29075279000000 1.67829701000000 103.00000000000000 -535.42598738623883
1.01660048000000 1.82314303000000 103.00000000000000 -535.46724405029101
1.04459056000000 1.68888476000000 132.85989280000001 -535.44819192679097
0.96446195000000 1.62022623000000  67.91686399000000 -535.42241711395104
0.77284784000000 1.68888476000000  64.19991572000001 -535.36336571264701
1.05163678000000 1.68888476000000  79.59276147000000 -535.45315055763194
1.04835337000000 1.56617826000000 103.00000000000000 -535.46155881766697
0.98941726000000 1.72521351000000 103.00000000000000 -535.47455104898802
0.80749115000000 1.68888476000000 107.63857358999999 -535.44149325328999
1.09726778000000 1.48389772000000 103.00000000000000 -535.43533249930283
0.96446195000000 1.76657463000000  83.17988065999999 -535.46457373366604
1.29508116000000 1.68888476000000 100.64422256000000 -535.42503765699200
0.96446195000000 1.68989521000000 112.17670446000000 -535.47323582276204
1.03122837000000 1.63605184000000 103.00000000000000 -535.47063799065904
0.87874869000000 1.68888476000000 110.15646088000000 -535.46591992326091
1.02719462000000 1.62623725000000 103.00000000000000 -535.47041949879099
0.93723189000000 1.68888476000000  99.64225372000000 -535.47455324241196
0.82171817000000 1.68888476000000 102.85787832000000 -535.44884614153204
1.07102379000000 1.68888476000000 103.19508389000001 -535.46737236497995
0.86016110000000 1.83314900000000 103.00000000000000 -535.45490745114398
1.25271503000000 1.68888476000000 118.98844735000000 -535.42717862027916
1.00894941000000 1.68888476000000 120.91634861000000 -535.46526846253903
0.96446195000000 1.80986763000000  60.24135026000000 -535.42384500645096
0.75040520000000 1.68888476000000 128.61010311000001 -535.38649395636401
0.93521320000000 1.85813475000000 103.00000000000000 -535.46512482093999
1.04253441000000 1.85677346000000 103.00000000000000 -535.46192315057999
1.48993351000000 1.71596573000000 103.00000000000000 -535.38583025107800
0.90760897000000 1.68888476000000  75.67570083000000 -535.44677831604702
1.09438999000000 1.65601223000000 103.00000000000000 -535.46336542265897
0.70890453000000 1.70049869000000 103.00000000000000 -535.35808020835691
1.07607388000000 1.87397928000000 103.00000000000000 -535.45619494613197
0.96446195000000 1.44497730000000  97.79450595000000 -535.42799033851998
1.19286713000000 1.68888476000000 124.37839812000000 -535.43417236725998
0.96446195000000 1.74031810000000 100.24843084000000 -535.47458627265405
0.92593240000000 1.71922596000000 103.00000000000000 -535.47369519753204
0.96446195000000 1.63797420000000 102.32357664000000 -535.47427732603001
1.36833496000000 1.68888476000000  93.06005660000000 -535.40728041527404
1.20524222000000 1.68888476000000 114.79060712000000 -535.43983648488893
1.13138896000000 1.68888476000000  90.68344775000000 -535.45363087757198
1.07231703000000 1.67530163000000 103.00000000000000 -535.46708307176004
0.96446195000000 1.98786167000000 114.70812736000001 -535.44550311572402
1.05617353000000 1.62109526000000 103.00000000000000 -535.46685452873396
0.84997923000000 1.84865473000000 103.00000000000000 -535.45032706011898
0.96446195000000 1.71441264000000 109.01876489000000 -535.47404405565499
0.96446195000000 1.59873740000000  70.11119707000000 -535.42396173821203
0.96446195000000 1.85495223000000 106.21417456000000 -535.46540477674716
1.11741536000000 1.49729371000000 103.00000000000000 -535.43624095740302
0.94083078000000 1.68888476000000 116.63453350000000 -535.47000286092805
0.96446195000000 1.92860130000000  92.72863553000001 -535.45961370283806
0.71782412000000 1.68888476000000 102.40301027000000 -535.36909536768997
0.75811882000000 1.68888476000000 128.72753872999999 -535.39295026727495
0.87789084000000 1.73665645000000  96.96454472000001 -535.46540680416297
1.18044344000000 1.73757970000000  90.00907506000000 -535.44466032882497
1.01481293000000 1.66526540000000 136.38767225000001 -535.44682901961403
1.00390405000000 1.63894062000000 106.29512621000001 -535.47303939367396
1.11495342000000 1.85588294000000  97.45764629000000 -535.45265997702893
0.92027462000000 1.89441733000000  90.81306438999999 -535.46005109262205
0.85585193000000 1.76421002000000  88.42192764000001 -535.45440946454301
1.02654648000000 1.97453086000000  96.14128350999999 -535.45235200520494
1.17662035000000 1.62402748000000  92.33993778000000 -535.44239890449705
0.86814764000000 1.74094009000000  76.07805317000000 -535.44263399593501
0.73004504000000 1.71254982000000 111.90750374000000 -535.37994086279116
0.99447775000000 1.74116910000000  95.69164582000001 -535.47299005525895
0.89055995000000 1.68817312000000 119.72005320000000 -535.46221873160505
0.94678790000000 1.66233599000000  96.84728883000000 -535.47348465647201
0.96098855000000 1.83388861000000 118.24710623000000 -535.45956498878490
0.96844811000000 1.84409379000000  63.77506822000000 -535.43352954159104
1.02141166000000 1.63209403000000 118.96893304000000 -535.46576817105199
0.89247483000000 1.66778441000000  85.19345240000000 -535.45823402159999
1.25173022000000 1.72274284000000 114.98994390999999 -535.42937238419097
1.02390183000000 1.47378903000000 107.94173594999999 -535.44304230462717
1.09518122000000 1.84435486000000 104.46134198000000 -535.45575705714896
0.72788484000000 1.68184112000000 117.58553533000000 -535.37532504199896
0.97642557000000 1.72361466000000  80.68041035000000 -535.46118206752703
0.97835144000000 1.81222538000000 124.98684498000000 -535.45460602148898
0.94835395000000 1.53702668000000  95.90166125000000 -535.45708516959701
0.91526968000000 1.47771299000000 115.25651188000001 -535.44513607506804
0.97202870000000 1.55112481000000 129.53135997999999 -535.45262388550896
1.12539359000000 1.70582749000000  77.03230917000000 -535.44034824053404
1.15251656000000 1.47467171000000 105.31006173999999 -535.42386262031300
0.97286142000000 1.47092324000000 132.81139567000000 -535.43280623279202
1.32379636000000 1.68546619000000 127.57469107000000 -535.40438612338596
0.92337492000000 1.57952141000000 100.45368510000000 -535.46656542445498
1.34783685000000 1.73291625000000 112.46225806000000 -535.41060541017805
0.96386261000000 1.66135595000000 128.76024545999999 -535.45922053407401
0.99016657000000 1.71138792000000 139.80046192000000 -535.44161917569295
1.11035745000000 1.94346812000000  99.70012997000001 -535.44469859026492
1.04917444000000 1.82523542000000  94.92541296000000 -535.46407141980501
0.95413055000000 1.70245262000000 102.73968705000000 -535.47544756667116
0.85030474000000 1.60312517000000  95.96791131000001 -535.45294419393292
1.04683385000000 1.68947370000000 107.87771045000000 -535.46968931750496
0.96922488000000 1.68384635000000 109.36959232000000 -535.47448709926300
0.97024553000000 1.60395775000000 118.64411616000000 -535.46745857472399
1.02526514000000 1.65713106000000 138.91529349000001 -535.44235181772683
1.04434240000000 1.68032110000000  77.28364707000000 -535.44958849458703
1.12884251000000 1.70888612000000 127.72611275000000 -535.44166664095599
0.89027806000000 1.71715079000000  84.62627234000000 -535.45932795409692
0.95943481000000 1.94446364000000 118.34950010999999 -535.44742380506716
1.16618310000000 1.80151898000000  99.32671610000000 -535.44762079275995
1.08470472000000 1.65180558000000  74.18829528000001 -535.43636132394101
1.10645310000000 1.69282971000000 135.22896112000001 -535.43608670807805
1.03749769000000 1.89785147000000 108.78111653000001 -535.45603618116490
0.95350098000000 1.51770138000000  74.55457733000000 -535.41185678507895
1.07665846000000 1.69696192000000 131.93428716000000 -535.44504274262295
0.86620430000000 1.79541942000000  96.89442749000000 -535.45971940507195
0.80923153000000 1.65498640000000 109.60020931000000 -535.44191174628202
1.23881368000000 1.79625764000000 107.59805436000001 -535.43181941796604
0.90480291000000 1.66552207000000 113.53296717000001 -535.46904751822797
0.95754183000000 1.46796103000000  97.87440192000000 -535.43785622421103
1.00691201000000 1.62976908000000  99.60629661000000 -535.47155259558394
0.95709825000000 2.00366467000000 102.75106198000000 -535.45018266655597
0.86635965000000 1.72136985000000  69.70873171000000 -535.42790961403898
0.88672991000000 1.59150825000000 108.73864628000000 -535.46437991934101
0.75086190000000 1.82414663000000 101.75172510000000 -535.39543726994202
1.04343353000000 1.90948671000000 106.53409431999999 -535.45528233064101
0.95777236000000 1.65510760000000  90.57637631000000 -535.46918103090604
1.11602793000000 1.64276992000000 112.61172508999999 -535.45735098348098
0.93533122000000 1.73391187000000  82.36077580000000 -535.46250071853206
0.90039097000000 1.54279958000000 103.36584864000000 -535.45897694675205
0.98905141000000 1.73508926000000  87.65790715000000 -535.46868507268198
1.00633202000000 1.79749738000000 116.28670796999999 -535.46325295588304
0.89668447000000 1.67426724000000  95.25608049000000 -535.46837783351805
1.14506044000000 1.91511065000000 105.44483679000000 -535.44017050584898
0.85754088000000 1.78636740000000  97.89093880000000 -535.45802070339801
0.99833562000000 1.74130108000000  92.55152531000000 -535.47149660930802
1.11111180000000 1.71851477000000  85.00652104000000 -535.45297357294999
1.02547705000000 1.72363833000000  60.98988167000000 -535.41869147347404
1.10299654000000 1.75899935000000 107.13691378999999 -535.45989002405599
0.89703367000000 1.90447339000000 111.02877453000001 -535.45229535056797
0.93389435000000 1.67337612000000  87.56726413000000 -535.46635641981800
0.94601570000000 1.99077691000000  73.26576455999999 -535.44196213052601
0.88257331000000 1.62040264000000 107.26423207000001 -535.46604502929301
0.85327277000000 1.44879926000000 110.59625561999999 -535.42325347604196
0.93897335000000 1.81767287000000  96.36367701000000 -535.46917081943502
0.91735855000000 1.65258031000000 124.43563263999999 -535.46196673448799
0.79369845000000 1.69696814000000 114.39188419000000 -535.43074774480499
1.01889299000000 1.71619926000000  97.80738113000000 -535.47246732219605
1.10706289000000 1.70298919000000 100.43384062000000 -535.46183280723994
0.96824513000000 2.07685545000000  92.99747791999999 -535.44347631859000
0.89467426000000 1.65829518000000 107.73224999999999 -535.46964014462799
0.90550101000000 1.61183674000000  78.31649041999999 -535.44206555157803
0.95385730000000 1.83767997000000  86.89062536000000 -535.46474933834895
0.98737206000000 1.94523298000000  96.24248496000000 -535.45784935265601
1.08277643000000 1.71308150000000 112.89477943999999 -535.46231571170097
1.29182222000000 1.63092838000000 104.03471822000000 -535.42415591236795
1.30764126000000 1.60481139000000 101.81456240000000 -535.41856126404400
1.03001011000000 1.67618686000000 113.59889029000000 -535.46911873015904
0.89748311000000 1.75013072000000  88.63864589000001 -535.46447960887895
1.05860279000000 1.70250808000000  79.64634081000000 -535.45327087500402
0.81925045000000 1.71901395000000  70.74241966000000 -535.41281064529198
1.41162484000000 1.68337942000000 121.12741419000000 -535.39356355654604
0.91120434000000 1.87623778000000 108.75590400000000 -535.45877907280999
1.06391315000000 1.50655508000000 110.06330341000000 -535.44836805807904
1.01752708000000 1.63192606000000 137.74795970000000 -535.44480262440300
1.08842503000000 1.44541997000000 101.57862132000000 -535.42103777801401
0.96764729000000 1.81080403000000 120.53020165000000 -535.45962697887398
0.98721226000000 1.65220620000000 110.57812649000000 -535.47336229724203
1.08538245000000 1.48171282000000  95.76433776000000 -535.43067924991203
0.77750294000000 1.56348989000000  96.78575827000000 -535.41226992204895
0.86140590000000 1.67972952000000  99.93893104000000 -535.46263430560498
0.88256074000000 1.78097909000000  85.14056179000001 -535.45800346094597
0.96839349000000 1.46526967000000 122.01264541000000 -535.44029208375400
0.92529418000000 1.70273963000000 105.23552118000001 -535.47378236157601
1.00426206000000 1.66737565000000 123.44098266000000 -535.46352961936395
1.06993066000000 1.66341927000000  76.71737770000000 -535.44421501428201
1.03328833000000 1.98979294000000  98.75001281999999 -535.44976440544701
1.24267375000000 1.84142640000000 103.20088889000000 -535.42887827956099
0.88551986000000 1.72084810000000 115.36795453000001 -535.46342121388204
1.05865099000000 1.66956579000000 124.24062977000000 -535.45729988510698
1.01317727000000 1.60197542000000 113.32101667000001 -535.46823304198006
0.97107175000000 1.69293179000000 120.85770359999999 -535.46688524120600
1.02326611000000 1.77003752000000  80.72689652000000 -535.45957838429604
0.87250617000000 1.67256807000000  99.63654013999999 -535.46529809180299
0.87643664000000 1.96232278000000 102.75797020000000 -535.44541567426495
1.02863374000000 1.88838856000000 107.42322174000000 -535.45855656809499
0.99024267000000 1.84753219000000  65.59693126000001 -535.43737629178599
0.99750975000000 1.76822419000000  69.05625960000000 -535.44260578937997
0.85535239000000 1.71848460000000 113.76205569000000 -535.45719944174800
1.00463711000000 1.48186702000000 118.91703113000000 -535.44547052849600
1.08747273000000 1.44691736000000  99.93346884000000 -535.42049321230195
1.01773952000000 1.68722147000000  63.57197011000000 -535.42162755117101
0.98004626000000 1.99084426000000 133.76710987999999 -535.42453637002495
1.34768311000000 1.54650650000000 102.98129615000001 -535.40279386119698
1.13610551000000 1.65233504000000  88.60602978999999 -535.44914252611693
0.95201845000000 1.71080736000000  82.30674969000000 -535.46268185163399
0.88972789000000 1.50977655000000  99.65171126000000 -535.44746455881602
1.21735740000000 1.69306973000000 107.95998102999999 -535.44050724123201
1.01439643000000 1.48982390000000 114.97550242000000 -535.44852262071402
0.94838730000000 1.61759838000000  85.33618767000000 -535.45914530547202
0.95393765000000 1.70708769000000  83.81920375999999 -535.46451790153299
0.97238970000000 1.84524525000000  82.36127639999999 -535.46109149766698
0.94233713000000 1.48505186000000 144.90427381000001 -535.42216765582896
1.28429277000000 1.65777694000000 118.35656363000000 -535.42132325437694
0.79023655000000 1.69056215000000  72.00796716000001 -535.39741801175103
1.08381029000000 1.65651447000000  97.54948837000001 -535.46382685272204
0.97205937000000 1.56053703000000  96.37389734999999 -535.46257502790297
0.87934883000000 1.80378534000000 100.77544085000000 -535.46250025300196
1.01941790000000 1.48788896000000 102.77270433000000 -535.44618772032698
0.86727995000000 1.67561891000000 102.52686931000000 -535.46453752269201
0.99581087000000 1.75028956000000  98.73617772000000 -535.47330104699302
0.90571259000000 1.62967251000000  68.85223625000000 -535.42156971165502
1.26483841000000 1.59395928000000 105.33033678000000 -535.42682573009404
1.19399412000000 1.66664968000000  86.24150956000000 -535.43706016117096
1.23561141000000 1.98379898000000 104.27014430000000 -535.41561247868003
1.11079423000000 1.71036028000000  95.75217494000000 -535.46013549729901
0.82868823000000 1.62560039000000  88.95748754000000 -535.44088681377798
0.94329416000000 1.86870523000000  98.59766977000000 -535.46522433471205
0.85428205000000 1.70035051000000 112.54253366000000 -535.45825960121999
0.92827979000000 1.72067463000000 110.32596820000001 -535.47196196458196
1.15891186000000 1.65503860000000 111.21095810000000 -535.45061205281604
1.27534719000000 1.72160136000000 110.61215642000001 -535.42695811035503
1.37756100000000 1.70616605000000 103.48745132000001 -535.40793702135602
0.90841039000000 1.59685646000000 122.76391166000001 -535.46086211818795
0.96547318000000 1.68048762000000  92.95427918999999 -535.47231288415196
1.03403957000000 1.63489888000000 111.80009477000000 -535.46888689261095
0.76349767000000 1.73054897000000 116.39296352000000 -535.40697336155199
0.87774266000000 1.51969912000000 112.42184227000000 -535.45100236399401
0.94199601000000 1.59017416000000  67.18961519000000 -535.41148274620298
0.86873441000000 1.78879450000000 105.64826069000000 -535.46025425709502
0.96885718000000 1.76780974000000 108.74184332999999 -535.47153806679000
1.21397320000000 1.69355516000000  87.70139632999999 -535.43581486384699
1.06477332000000 1.63413606000000 109.94691702000000 -535.46586651777397
0.99952293000000 1.67002787000000 132.88654872999999 -535.45267565684105
1.06899918000000 1.74544837000000 102.42586669000001 -535.46655322304196
1.08244594000000 1.72916338000000 128.68057542000000 -535.44695937562096
1.02455718000000 1.65129131000000 113.12448600000000 -535.46970177013498
0.93014136000000 1.63857653000000 106.80228031000000 -535.47325814094995
1.40421680000000 1.58929243000000 104.44706085000000 -535.39800323469797
0.84475849000000 1.64419332000000  96.54339589000000 -535.45499070556298
1.00212988000000 1.67711843000000 107.33125487000000 -535.47388053503596
0.75796149000000 1.66905869000000 111.02920181000000 -535.40773717346895
0.78163861000000 1.60396975000000 112.42296256000000 -535.42296803438717
1.00593452000000 1.73980036000000  65.26970990000000 -535.43227068939802
1.02768986000000 1.54912543000000  89.10944857000000 -535.44940144277996
1.02013469000000 1.72323567000000  79.43145266000001 -535.45752761405799
0.73432744000000 1.70236493000000 127.64007635999999 -535.37164336040303
0.80271287000000 1.73617795000000 109.39581099000000 -535.43668646100298
0.92848298000000 1.65040867000000  65.90879140000000 -535.41972552614300
1.29007636000000 1.69058861000000  81.04366512999999 -535.41343795339503
0.90176910000000 1.62246511000000  75.02673846000000 -535.43598947476698
0.98015009000000 1.73804365000000 111.38474720000001 -535.47178828793517
0.88007866000000 1.63542090000000  95.33162778000001 -535.46336068963899
0.85832107000000 1.73513719000000  86.54823659000000 -535.45395540803895
1.13176151000000 1.82308498000000  99.81703084999999 -535.45237181862683
1.02826045000000 1.63936070000000 108.11593637000000 -535.47079166479602
0.89621707000000 1.72706795000000  85.46191897000000 -535.46145886985516
1.34189195000000 1.67224991000000 124.05984558000000 -535.40468670136102
0.90039382000000 1.80962507000000 102.82022170000000 -535.46569822102003
1.01339785000000 1.80655215000000 112.30049638000000 -535.46488404936099
0.98446094000000 1.62041962000000  76.04437009000000 -535.44325861892003
1.03552358000000 1.69740636000000  94.25816800000000 -535.46962457173004
0.95302121000000 1.92333813000000 123.85943116000000 -535.44410932968799
0.82537624000000 1.64898009000000  75.42339710000000 -535.41904780009691
1.02520921000000 1.76779201000000 100.05887002000000 -535.47055358598004
1.43966732000000 1.60054722000000 106.87340507000000 -535.39242078617804
0.97290634000000 1.84472597000000  95.57095627000000 -535.46773785590892
1.51917437000000 1.89337678000000 103.30488119000000 -535.36825793577600
1.05788224000000 1.73438216000000 105.33071884000000 -535.46798153065902
0.93823238000000 1.91937570000000  82.96274821000000 -535.45547748732395
1.00895247000000 1.96006007000000 106.74451146000000 -535.45248540575403
1.08821098000000 1.92039650000000  98.03310985000000 -535.45072441421291
1.04077786000000 1.87403708000000  95.01651214000000 -535.46109640018096
1.16575543000000 1.83621727000000 100.80684796000000 -535.44506727401301
0.79036027000000 1.66801162000000 121.53168565999999 -535.42413948050796
0.95636372000000 1.45614596000000 117.46248466000000 -535.43933904610606
0.95129781000000 1.91687694000000  97.20298561000000 -535.46082343968703
1.00477266000000 1.81243143000000 123.29474338999999 -535.45538568766892
0.96488777000000 1.79476285000000  96.91768139000000 -535.47154893460799
1.34046852000000 1.67844874000000 114.54806268999999 -535.41234235199397
1.02836303000000 1.76277030000000 117.65688808000000 -535.46301464550800
1.02251010000000 1.62158643000000 121.03880015999999 -535.46361473528805
0.89271322000000 1.57522003000000  90.19153282000001 -535.45342158486994
1.30505453000000 1.81479549000000 102.80110928000001 -535.41802649226997
0.86394863000000 1.79871329000000 108.65361366000000 -535.45708220360802
1.00004910000000 1.72824684000000 113.16586260000000 -535.47039340316906
1.53482466000000 1.73375886000000 108.13869874000000 -535.37647338768897
0.91689314000000 1.76116194000000  75.16588608000001 -535.45074644132001
0.84332436000000 1.80143336000000  94.35324552000000 -535.45167594872498
1.15207783000000 1.69382055000000  59.09380937000000 -535.40002877920006
0.94818479000000 1.64816313000000  79.89103439000000 -535.45425562785999
0.80316385000000 1.74311586000000 113.90005321000000 -535.43414755141202
0.93651102000000 1.71489603000000 106.47690867999999 -535.47404227345805
0.93133524000000 1.74229424000000 121.66646138999999 -535.46275246432492
1.14790573000000 1.70361187000000 122.70218250000001 -535.44401156581898
0.74470400000000 1.86318051000000 105.83685948999999 -535.38484853889497
0.94270558000000 1.70137016000000  90.19120500000000 -535.47031729739501
1.04161083000000 1.58989439000000 100.84886652000000 -535.46497607418405
0.99655252000000 1.84717364000000  96.66062140000000 -535.46696283126596
0.85677546000000 1.70698758000000  73.13961252000000 -535.43177920148196
1.05324102000000 1.67182965000000  82.22707994000000 -535.45550509049099
1.36605991000000 1.67989251000000  86.53771150000000 -535.40273281414795
1.17103289000000 1.71525991000000  77.00458514000000 -535.43303090185896
0.93085645000000 1.80266383000000  93.55516698000000 -535.46896428730304
0.82807787000000 1.77656993000000 105.18064389000000 -535.44773898469202
0.97205639000000 1.65667596000000 130.60901512000001 -535.45692283755693
1.16903369000000 1.68325481000000  89.80032983000000 -535.44591889705896
1.10993420000000 1.66512069000000 132.20003829000001 -535.44032932992695
1.14666943000000 1.62754700000000 113.29419774000000 -535.45101580378002
1.10765258000000 1.69128370000000  92.56927051000000 -535.45891647872304
0.84572907000000 1.62116724000000  85.26661747000000 -535.44183791950297
0.96036119000000 1.44829285000000 112.91693560000000 -535.43720011949802
0.97758932000000 1.51155580000000 108.78356934000000 -535.45705650681396
0.92277143000000 1.72306816000000  66.54073789000000 -535.43092692492701
0.92648707000000 1.83715251000000 112.68904145000000 -535.46202651350302
1.07871887000000 1.65191301000000  79.21588758000000 -535.44606735455204
0.99231356000000 1.72590263000000 128.20808317999999 -535.45687870047595
1.01105549000000 1.74428828000000  69.38523985000000 -535.44163909081897
0.92112546000000 1.56132571000000 110.33470267000000 -535.46513164536600
1.28238816000000 1.87575752000000 100.55043496000000 -535.41808147754500
0.83875773000000 2.15092838000000 105.78064396000001 -535.41035546889100
1.21167806000000 1.71650150000000 122.13205302999999 -535.43187908162497
1.09759786000000 1.49116572000000 104.31223427000000 -535.43817576598894
0.92999546000000 1.77354161000000 119.65552200000000 -535.46235838315897
1.11279033000000 1.69788408000000 141.35592907000000 -535.42559041983600
0.95345649000000 1.92241991000000 117.33653743000001 -535.45072382685100
0.92176253000000 1.79967563000000  84.78948579000000 -535.46306418008203
0.92807476000000 1.72063833000000 115.50949820000000 -535.46894544069698
1.10884305000000 1.71764769000000 124.18090223000000 -535.44869528945298
1.04467350000000 1.64435013000000  71.49831174000001 -535.43389265012900
1.04457735000000 1.75096998000000 123.77062405000000 -535.45625478374200
1.18461145000000 1.62265660000000 106.93663008999999 -535.44544382967104
0.84066267000000 1.70290075000000  83.48523256000000 -535.44406145477899
1.11420564000000 1.67786537000000 126.36448111000000 -535.44662688605604
1.34345662000000 1.75519770000000 106.91077353000000 -535.41274919547504
0.71203318000000 1.80416109000000 104.17974594000000 -535.35576646682296
0.78237460000000 1.66940676000000  96.63509227999999 -535.42542076301902
1.43242390000000 1.66177396000000 102.27064154999999 -535.39676123400602
1.41020405000000 1.67102619000000  87.08021974000000 -535.39377591963103
0.99981211000000 1.60922037000000  96.65587574000000 -535.46880739936296
1.02082859000000 1.73820613000000  93.34703512000000 -535.47041454861096
1.07366521000000 1.70841627000000  76.02516642000001 -535.44630349324495
0.95603836000000 1.62290044000000  70.92305322000000 -535.43107206660000
1.23556215000000 1.67874600000000 126.40712482000001 -535.42366065425699
0.97689052000000 1.87338513000000  70.89199848000000 -535.44622454556702
0.93929007000000 1.94011004000000 101.77708069000001 -535.45706985238598
1.18986719000000 1.64312349000000  96.34990343000000 -535.44387995878299
1.01941225000000 1.58398223000000 121.25760977000000 -535.46127400667501
0.84086929000000 1.79230280000000 105.72262447000000 -535.45141704483103
1.04940589000000 1.67444649000000  64.76903460000000 -535.42148369694098
1.32875489000000 1.69214734000000  75.06836991000000 -535.39836322660699
1.50622248000000 1.62327241000000  98.78891019000000 -535.38039994100495
0.80005035000000 1.64894510000000  97.40443328000001 -535.43581629288701
1.01133801000000 1.63511969000000 107.85199192000000 -535.47211566103397
1.23500716000000 1.70552643000000 116.37745386000000 -535.43241232968796
0.96316444000000 1.44019986000000 106.58252453000000 -535.43255150565994
0.78603225000000 1.74403064000000 100.66460596000000 -535.42795906650599
1.05732743000000 1.60888195000000  96.54600712000000 -535.46332145672602
1.03344148000000 1.85444644000000  95.51340669000000 -535.46356224694205
0.83090144000000 1.74954318000000  84.84190404000000 -535.44255475156604
1.02330467000000 1.83994472000000  96.53953266000001 -535.46575762019495
1.18277683000000 1.82412614000000 107.57774401000000 -535.44093016529700
0.98786687000000 1.74052307000000 125.18020270000000 -535.45977046844098
0.94068523000000 1.56450288000000 134.51593396000001 -535.44816554208091
0.97456886000000 1.58676886000000  79.24809037999999 -535.44371378935205
1.35427022000000 1.70007693000000  91.43240797000000 -535.40949148956804
0.97788563000000 1.76309301000000  66.73069171000000 -535.43760856298900
1.11926035000000 1.64302547000000  93.97894635000000 -535.45560912901306
0.95359322000000 1.70409657000000  84.65879820000001 -535.46540336148996
1.14664511000000 1.70130778000000  86.41212274000000 -535.44782616955797
0.95972890000000 1.50659304000000 116.06410744000000 -535.45489054552297
0.92639138000000 1.65424763000000  84.01340000000000 -535.45999181734896
0.75778198000000 1.64049228000000 116.79688772999999 -535.40455299222799
0.86033074000000 1.81155326000000 104.60998346000000 -535.45646109570202
1.04103040000000 1.90692400000000 103.91715682000000 -535.45682431563296
0.89533005000000 1.43908425000000 105.29917836000000 -535.42660565402298
1.08482281000000 1.68602965000000  56.89452083000000 -535.39771906622798
0.87364795000000 1.62921977000000 120.25232085000000 -535.45849643538304
0.97981823000000 1.77336312000000  82.20530929000000 -535.46336957787298
1.41912773000000 1.69929129000000 127.12947226000000 -535.38603599015596
1.33219972000000 1.84096956000000 101.09487977000001 -535.41055655786397
1.39492337000000 1.64726242000000  99.72227108000000 -535.40317150622093
1.00042857000000 1.75759678000000 120.49552215999999 -535.46293260185496
0.99574574000000 1.68323938000000 120.83760657000001 -535.46629613527500
1.09875109000000 1.70426744000000  76.33936405000000 -535.44321952706491
1.34448452000000 1.67139172000000  99.29558552000000 -535.41421008576492
0.99565985000000 1.75300671000000 140.11320216999999 -535.43809086453598
0.87233156000000 1.67381692000000  66.81378070000000 -535.41625245668604
0.84154588000000 1.67615512000000  84.92558090000000 -535.44498015233899
1.07839996000000 1.60936956000000 109.99853364000001 -535.46247423383102
1.30867241000000 1.72100009000000  95.07662888000000 -535.42085003276202
0.88828731000000 1.70525268000000 116.14641192000001 -535.46405450574605
0.94926758000000 1.51782298000000  63.52222420000000 -535.37234675091395
1.06310738000000 1.57823411000000 112.50437841999999 -535.46088682141306
0.90205607000000 1.82513485000000  97.89108666000000 -535.46501925483301
0.98942011000000 1.65815057000000  90.19653830999999 -535.46863462763895
0.89377249000000 1.58441369000000  82.29438661000000 -535.44300391425691
1.20491235000000 1.75987316000000 100.99773238000000 -535.44229473998496
0.97826137000000 1.78812003000000  83.72390769000000 -535.46463816316498
1.14413881000000 1.79564803000000  97.55311591000000 -535.45199564086499
1.29810075000000 1.66470081000000  92.95684617000001 -535.42100850930501
1.22794891000000 1.68890912000000 138.63271452999999 -535.40866071263497
0.95091034000000 1.81270836000000  78.71321322000000 -535.45825964855806
0.84037827000000 1.76883554000000 109.40490668000000 -535.45160239436802
1.09663800000000 1.84451194000000 108.88145528000000 -535.45372356823998
0.84809699000000 1.64947703000000 119.60549116000000 -535.45233509097602
1.27183275000000 1.74309720000000 101.28490384000000 -535.42914703879399
0.99981638000000 1.85987579000000 123.44654495000000 -535.45086113139803
1.27385982000000 1.68226777000000  66.28959197000000 -535.39569119530802
0.92740143000000 1.88875212000000 106.09683158999999 -535.46039345977692
1.06179407000000 1.68442481000000 130.30911540000000 -535.44957981313996
1.13667803000000 1.66784285000000  73.20411184000000 -535.42906831471100
0.94755125000000 2.02134677000000  77.49435714000001 -535.44326304096205
0.93793943000000 1.50005744000000  94.96273200000000 -535.44552504923001
1.00739530000000 1.75927233000000  82.91483638000000 -535.46318255297695
1.06262246000000 1.66677215000000 121.44559739000000 -535.45954677897601
0.97827481000000 1.65821775000000  85.80575564000000 -535.46431344558198
1.53528126000000 1.70813423000000 115.86827620000000 -535.37430297408491
1.01537036000000 1.74020458000000  70.86797930000000 -535.44418336093395
1.01241675000000 1.64651132000000 107.08301926000000 -535.47263409282300
0.99041383000000 1.67265291000000  77.68768799999999 -535.45313165401706
0.92942880000000 1.68405583000000 146.37324688000001 -535.43255064535401
0.92780837000000 1.71922114000000 120.97827097000000 -535.46447813089196
1.04990031000000 1.71245770000000  73.92283225000000 -535.44561256062400
0.98490766000000 1.78076494000000  95.41803993000001 -535.47174447048099
0.94677031000000 1.54839389000000 114.70060730000000 -535.46344599769895
0.95759089000000 1.65000260000000  94.97143969000000 -535.47215658726395
0.98555942000000 1.44949191000000  78.54750280000000 -535.39274719818297
1.01339207000000 1.64603847000000  98.86889893000000 -535.47185536479117
0.76676416000000 1.67121768000000 121.02200144000000 -535.40835287210996
0.95764194000000 1.61368471000000  97.95380971000000 -535.47101293298999
0.81023578000000 1.79436082000000 112.90413178000000 -535.43456681905798
1.07938209000000 1.70752399000000 143.04772753000000 -535.42765912214099
1.28105741000000 1.69134808000000  76.99034593000000 -535.41037373388497
0.98207268000000 1.78531947000000  99.00679882999999 -535.47212035581697
0.94994987000000 1.65941031000000  94.47138074999999 -535.47219523125000
0.83386338000000 1.62669739000000  93.87015339000000 -535.44794025655096
0.73603064000000 1.75391780000000 100.29059319000000 -535.38659132042892
0.82957392000000 1.70886752000000 103.30269019000001 -535.45191443778594
0.88440024000000 1.59163517000000  91.73162635000000 -535.45637321767197
0.90656108000000 1.58543526000000  97.20792577000000 -535.46380746797104
0.98404609000000 1.74546687000000  90.92191006000000 -535.47109753624397
0.85654111000000 1.61640116000000  86.82368588999999 -535.44692683904896
0.85931404000000 1.66487516000000  96.55283444000000 -535.46050615466299
1.00772299000000 1.51979872000000  88.81008011000000 -535.44272906235699
1.01950228000000 1.83637519000000 117.27308488000000 -535.45798448800304
0.84799635000000 1.68319866000000  79.49526247999999 -535.43947614164699
0.89715604000000 1.81936767000000  94.87605261000000 -535.46425082007397
0.94765435000000 1.45849944000000 135.05878236999999 -535.42678214722105
1.37798392000000 1.68236027000000 132.38958572999999 -535.38804667810496
0.87446810000000 1.71643072000000  77.48274692000000 -535.44566512297104
1.02866528000000 1.84742232000000 108.32171574000000 -535.46220486995401
0.97896259000000 1.54456547000000 138.05626569000000 -535.44132047828100
1.07733547000000 1.67735560000000 122.14910976000000 -535.45677515689204
1.17741403000000 1.62732222000000  93.39376255000001 -535.44334261621100
1.01065319000000 1.66278971000000  88.39710725000000 -535.46607786870698
1.11796192000000 1.69531055000000  91.81026730000001 -535.45685000934895
1.06154553000000 1.91446292000000  98.10516741000001 -535.45491849328403
0.93332518000000 1.66164668000000 107.71627363000000 -535.47397687697605
1.21198571000000 1.62042040000000 104.05417366000000 -535.43992778719496
1.03631518000000 1.57681994000000  93.13329105000000 -535.45871587458316
1.37079162000000 1.70206299000000 127.46317424000000 -535.39478240706092
1.11084821000000 1.84260401000000  99.27283504000000 -535.45439392337698
0.96839367000000 1.58915424000000 111.98064019000000 -535.46973943831495
0.98881633000000 1.51825558000000 107.82937671000001 -535.45818127380096
0.86078179000000 1.85634881000000 102.20088067000000 -535.45306563595398
0.95381277000000 1.67805434000000 107.31277718000000 -535.47503010858895
1.26021116000000 2.02477452000000 103.35780647999999 -535.40629043321997
0.85628165000000 1.71115345000000  73.42598123000000 -535.43255623944594
0.96158315000000 1.66489952000000  83.70183953000000 -535.46216858090804
0.82620205000000 1.74486499000000  99.87900987000000 -535.44919311427395
0.96788532000000 1.79892334000000  75.65123319999999 -535.45480582783500
0.95779686000000 1.65619349000000 107.72022499000001 -535.47474940449297
0.82663183000000 1.85360687000000 102.18414661000000 -535.44120636356399
0.93291359000000 1.57184132000000  98.14000591999999 -535.46488744991916
1.01678070000000 1.69865375000000  70.38970396000001 -535.44005439366595
1.00731692000000 1.57282634000000  97.09408406000000 -535.46373194031696
1.47829162000000 2.03282882000000 102.61086869000000 -535.36120108752698
0.96409184000000 1.96982945000000  92.00000353000000 -535.45523224239116
0.89805265000000 1.72037311000000 107.12158116000001 -535.46967715893197
1.18872693000000 1.55381853000000 107.53848610000000 -535.43692770828602
1.06121231000000 1.81919265000000  95.61954555000000 -535.46318116687917
0.96361283000000 2.15630121000000  71.22710515000000 -535.42728358360898
0.94799494000000 2.06670183000000  83.01939613000000 -535.44207580753698
1.00482707000000 2.01404339000000 114.06021643000000 -535.44194499165405
0.95020715000000 1.58091622000000 110.36027153000001 -535.46921145539000
1.21390509000000 1.67825535000000 111.98700363000000 -535.43972689540101
1.04309505000000 1.73078444000000 126.02694766000000 -535.45510947309799
0.98286506000000 1.94195867000000 106.80011775000000 -535.45568113969898
0.86047251000000 1.84419093000000 110.17083943000000 -535.45112066207002
0.90344639000000 1.67728514000000  93.09270926000001 -535.46818514789595
0.88770463000000 1.65950499000000  85.60148392000001 -535.45727326354597
0.97785585000000 1.91280873000000 111.03851283000000 -535.45672567267002
0.97437036000000 1.94882768000000  55.73325708000000 -535.41630733605916
1.08726379000000 1.72017382000000  80.80402411999999 -535.45190554973897
1.12484609000000 1.88515477000000 106.15560836000000 -535.44649322485600
0.98203245000000 1.62205048000000 117.26047984000000 -535.46909847173401
0.76991484000000 1.67239557000000  81.20063430000000 -535.40051367958404
0.85326279000000 1.57259831000000 109.02012080999999 -535.45417245758802
0.95861885000000 2.11948503000000  69.40581496000000 -535.42866882520900
0.96290568000000 1.77389193000000 101.87772409999999 -535.47295970765902
1.13575485000000 1.72242615000000 108.44398936000000 -535.45546918345292
1.04569022000000 1.95050505000000 109.49942014000000 -535.44897149249903
0.90227144000000 1.77551544000000  98.81836421000000 -535.46852133773700
0.91923755000000 1.74158001000000  73.91126872000000 -535.44818602545104
1.14332888000000 1.71302465000000 101.14239745000000 -535.45553511162598
0.99247317000000 1.58396558000000  76.31457267000000 -535.43646850480798
1.32469377000000 1.69350207000000  71.42587660000000 -535.39456711476316
1.03128255000000 1.68652360000000 115.08369390999999 -535.46798958854095
0.95226016000000 1.55763123000000 125.11091141999999 -535.45793966020995
0.95443092000000 1.48474223000000 105.33103918000000 -535.44891837540604
0.89864259000000 1.83330129000000  93.86374400000000 -535.46321194259599
0.84914757000000 1.82321586000000 104.70841960000000 -535.45198021836802
0.91135911000000 1.62926494000000 109.39044031000000 -535.47064673147690
1.02214900000000 1.85898347000000 106.42298929000000 -535.46251638333899
1.12363611000000 1.66427357000000 107.70633586000000 -535.45831231814100
1.11196392000000 1.73861403000000 107.41108115999999 -535.45931932606800
0.94951197000000 1.67864477000000 107.62871470000000 -535.47485428404491
0.98952317000000 1.60819112000000 111.74411225999999 -535.47081193718395
0.74130355000000 1.69865817000000 101.89842372000000 -535.39391591415699
1.03798650000000 1.74469238000000  90.56210222000000 -535.46723040590405
1.12150703000000 1.69680134000000  87.64749282000000 -535.45315861632901
0.89295031000000 1.68696576000000 103.22894678999999 -535.47003499845903
0.70203843000000 1.67089232000000 114.58103522000000 -535.34651645432598
0.99692893000000 1.53926294000000 114.00180099000001 -535.46127282313000
1.17030020000000 1.71609560000000 120.46677584000000 -535.44154056610205
1.01209057000000 1.64988052000000 103.01542151000000 -535.47297906093604
1.18993953000000 1.72514374000000 101.14350408000000 -535.44645255956300
0.85227145000000 1.52505224000000  97.21087574000001 -535.44057003048897
1.02198234000000 1.66055495000000  83.74219748000000 -535.45965978224092
1.02331453000000 1.63144415000000  89.97362249000000 -535.46411685387102
0.98415367000000 1.67604926000000  75.11689364000000 -535.44880665315100
1.04803689000000 1.73097869000000  79.68051875000000 -535.45560935559604
1.06455461000000 1.75563860000000 104.36385579000000 -535.46641243706802
1.10496374000000 1.72624938000000 116.57449790000000 -535.45594624014700
1.29888452000000 1.75278064000000 108.94365983000000 -535.42144935986300
0.91117551000000 1.73486618000000  87.16671946000000 -535.46535507261399
1.01328076000000 1.91037766000000 110.62023033000000 -535.45568345757101
0.82535615000000 1.59664069000000  90.40811496000001 -535.43758482281805
1.02026238000000 1.93961815000000 101.92638682000000 -535.45578825542100
0.91846290000000 1.57402053000000 113.19237692999999 -535.46581059975904
1.01820531000000 1.70087410000000 102.02759777999999 -535.47322609219805
1.03267727000000 1.77333237000000 109.07921605000000 -535.46749033969502
1.13363742000000 2.11497571000000 104.50017145000000 -535.42005602295205
0.82017319000000 1.75705783000000  89.10758203000000 -535.44161967833099
1.11253737000000 1.70392772000000  81.45811921000001 -535.44832731322902
0.86823302000000 1.71583660000000 111.20894790000000 -535.46225357689195
1.09675203000000 1.65834615000000 131.32013896999999 -535.44365409511795
1.10428378000000 1.72597546000000 125.51432950000000 -535.44756931252300
0.95271008000000 1.89391467000000  73.17036063000000 -535.44819975693599
0.94215779000000 2.00300281000000 103.26372468000000 -535.44950313989500
1.02206325000000 1.64770207000000  58.76423301000000 -535.39874275230397
0.90222095000000 1.58261042000000  84.51999475000000 -535.44800492874299
0.96640957000000 1.87542555000000  80.72622567000001 -535.45787634590101
1.25368080000000 1.55931758000000  98.65768752000000 -535.42235266806199
1.08728401000000 1.68966660000000  73.24653720000001 -535.43838858723200
0.98752767000000 1.47353317000000 124.07254754000000 -535.44088949442698
1.30506566000000 1.69092711000000  68.62830181000000 -535.39433697027005
0.97613946000000 1.61109100000000 129.87624413000000 -535.45702151447199
0.89161803000000 1.51343367000000 111.01080044000000 -535.45236748748300
1.33906226000000 1.70889258000000 104.07107882000000 -535.41578317891401
1.15440545000000 1.72224561000000  89.28196198000001 -535.44912648704997
0.89706851000000 1.86807757000000 110.64617050000000 -535.45653282944704
1.25155571000000 1.75673842000000 100.20057063000000 -535.43286792108495
1.05246879000000 1.65879872000000  58.65778199000000 -535.40006143490098
1.00848018000000 1.74850811000000 144.00893518999999 -535.43139421727005
1.11306472000000 1.69963401000000 104.87839236000001 -535.46077106639598
1.11803950000000 1.78472117000000 104.76112237000000 -535.45662084731600
1.03857547000000 1.58739542000000  95.12189411999999 -535.46181759124295
1.08686100000000 1.81683073000000 103.16187917000001 -535.45963475060398
1.05261464000000 1.66561630000000 119.27424802000000 -535.46270896462897
0.93342338000000 1.63091174000000  96.93137629000000 -535.47106611267600
1.00891594000000 1.71523452000000 103.54217595999999 -535.47367202111195
0.87488238000000 1.47244135000000 104.50559283000000 -535.43577129693904
1.43631987000000 1.73734867000000 106.61528165000000 -535.39488929901097
1.17724232000000 1.87559927000000 104.78135469999999 -535.43843636521103
0.86390356000000 1.66198053000000 112.04094880000000 -535.46174521726005
1.12930338000000 1.64092042000000 120.59181427000000 -535.44970315809098
0.97227470000000 1.63388871000000 119.01110656000000 -535.46853861900502
0.89304978000000 1.76107593000000 125.56773493999999 -535.45272511710596
1.14911137000000 1.61580473000000 101.46823834999999 -535.45141634347306
1.07174045000000 1.78682368000000 104.44620758000001 -535.46363419270097
0.88869070000000 1.54723576000000  92.02229695000000 -535.44925548609797
0.95671278000000 1.64396351000000  93.98398314000001 -535.47111787388098
1.09632525000000 1.74819490000000 116.03792975000000 -535.45661032236603
0.90244962000000 1.82228027000000 109.76353388000000 -535.46242659191500
0.98673454000000 1.80330545000000  89.44925078999999 -535.46811709721396
1.01540801000000 1.74594579000000 104.05679756000001 -535.47210491219005
1.08735288000000 1.62873468000000  98.06631387000000 -535.46179288109897
1.44757330000000 1.65715900000000 114.12296648000000 -535.39151608129305
0.96469684000000 1.95200313000000 115.00030834000000 -535.44947245121398
1.00370296000000 1.53692745000000 105.04350477000000 -535.46098821304997
0.96683725000000 1.91427479000000  76.44907225999999 -535.45126248545398
0.91598515000000 1.89219798000000 111.33687401000000 -535.45611393919296
1.19530017000000 1.57933375000000 104.42457970000000 -535.43917434558898
1.24118955000000 1.71633550000000  84.91698674000000 -535.42849228022703
1.29996263000000 1.76273787000000  97.31201562000000 -535.42221637323496
1.01400829000000 1.84983248000000 105.84996934000000 -535.46424621481697
0.90381971000000 1.66379492000000  70.30011181000000 -535.43110439605516
0.99129636000000 1.61112908000000 119.21343557000000 -535.46678476216698
1.31416305000000 1.70276884000000 132.29623235000000 -535.40003915252203
0.98473024000000 1.77562583000000  78.98057210000000 -535.45940969752303
0.92468287000000 1.75484131000000 125.35505808000001 -535.45744584495901
0.97584287000000 1.67481741000000  64.24550753000000 -535.42194296288699
0.97699101000000 1.51715588000000 113.39330241000000 -535.45792239943205
0.92127101000000 1.68821597000000  99.92370343000000 -535.47341850778298
1.04240056000000 1.70595575000000  85.80261579000000 -535.46270259971902
1.20043165000000 1.71640027000000  98.76020154000000 -535.44430003096500
1.14001777000000 1.65732016000000 120.78011734000000 -535.44788200355504
0.85570239000000 1.64622548000000 116.41460080000000 -535.45693938970396
0.90425166000000 1.48272890000000 101.68832322999999 -535.44282498187897
0.92223587000000 1.85902498000000 118.90563813000000 -535.45438708144491
1.02082759000000 1.67823010000000 138.67737532000001 -535.44264735285606
1.05950984000000 1.81383850000000  93.05887457999999 -535.46313894532602
1.05187378000000 1.67903424000000 104.43474953000000 -535.46972357158893
0.92802993000000 1.61812207000000 139.50917519999999 -535.44387338185800
1.03707843000000 1.65844208000000  95.94961769000000 -535.46913309494096
1.05499535000000 1.78955637000000 112.80250527000000 -535.46184124915396
0.92061303000000 1.80294779000000 114.44325118000000 -535.46343630351805
1.06252927000000 1.70471356000000  78.01389568000000 -535.45053857804498
0.92290767000000 1.59415453000000 113.82802706000000 -535.46798179369898
0.96530041000000 1.57300228000000 145.50105246999999 -535.43422293980200
0.86598882000000 1.60812688000000 106.37953515000000 -535.46146389935404
0.90685066000000 1.57136714000000  88.12684019000000 -535.45208734581502
1.10946224000000 1.77759508000000  94.50588557000000 -535.45832863423198
0.94894612000000 1.83532280000000  99.29630942999999 -535.46840534606497
0.99768162000000 1.58634613000000 136.46186105000001 -535.44641721397204
0.92321145000000 1.65730745000000 103.93823377000000 -535.47351767214798
0.89179638000000 1.53971135000000  96.91922335000000 -535.45314259669397
0.96886953000000 1.71200788000000 115.65398260000001 -535.47049756397598
0.83097483000000 1.74253103000000  99.07757795000001 -535.45117839684406
1.01992500000000 1.63058431000000  62.56751089000000 -535.40818995273798
1.06054288000000 1.72092752000000 120.69870432000000 -535.45911667125802
1.12418948000000 1.48944817000000 107.02395550999999 -535.43410410610090
0.97582909000000 1.66528031000000 134.49576510000000 -535.45163121353903
0.90303073000000 1.74170191000000 123.25914193000000 -535.45822269256905
0.93932375000000 1.74132935000000 118.27591906000001 -535.46641187697116
0.89643335000000 1.53611864000000 101.93286139000000 -535.45642081900996
0.83025762000000 1.75195270000000  88.99029593000000 -535.44603906436600
0.97202368000000 1.95797873000000 116.20134511000001 -535.44781445793899
1.05211486000000 1.64896110000000  78.56667199000000 -535.44781140182499
0.87961312000000 1.67517933000000  93.14118154000001 -535.46391640054298
1.03954848000000 1.66294461000000  94.75211485000000 -535.46846053493903
0.94639588000000 1.51265559000000  89.54664200000001 -535.44269000653696
1.03366820000000 1.59480483000000 104.12572428999999 -535.46716894494602
1.14294650000000 1.68495160000000 128.47006464000000 -535.43903106551602
1.49556548000000 1.79155566000000 100.43939399999999 -535.38140485352096
1.10606892000000 1.82251706000000  97.32635594000000 -535.45671094898898
0.71377635000000 1.65042367000000 100.04010952000000 -535.36338174459399
1.02034483000000 1.58485447000000  92.91229575000000 -535.46130379532997
0.94001995000000 1.86651069000000 121.94819975999999 -535.45190739381701
1.04592451000000 1.66867559000000  60.67092416000000 -535.40885354851116
0.99025364000000 1.69397772000000  90.30562292000000 -535.47029959435497
0.97650415000000 1.80077781000000 100.79463412000000 -535.47121712523597
1.04815070000000 1.72273064000000 110.40257600000000 -535.46784201162495
0.93735958000000 1.50390779000000 136.36473712000000 -535.43682228164198
1.02116910000000 2.03092323000000  95.52677798000001 -535.44652529552695
0.91584155000000 1.72612704000000  77.59302488000000 -535.45362185107604
0.84144123000000 1.66464174000000  94.43679160000001 -535.45358381191204
0.91224051000000 1.70796106000000 110.40798644000000 -535.47083507640605
0.95383587000000 1.51161066000000 146.92661670999999 -535.42505024443199
0.97526069000000 1.99041089000000 131.22138946999999 -535.42800849754497
1.09098529000000 1.60867568000000  99.56531749000000 -535.46005509374197
0.88938920000000 1.70429185000000  86.07547099999999 -535.46048021229296
0.96353368000000 2.04540867000000  56.35858386000000 -535.41571225301198
1.05099664000000 1.64899527000000  90.36846369000000 -535.46319888711798
0.96152610000000 1.60386124000000 122.42276834000000 -535.46454349500891
1.07892895000000 1.50363849000000 108.38221932000000 -535.44549098202492
1.00165965000000 1.67912896000000 142.79403531000000 -535.43783871130199
0.96720590000000 2.09354176000000  65.08367800000001 -535.42630091737203
1.42217794000000 1.70429139000000 129.57534283000001 -535.38258091938405
0.98079203000000 1.82235377000000 100.54571102000000 -535.46952868526296
0.94176494000000 1.56482012000000  69.01108836000000 -535.41009982135904
0.87370266000000 1.48144761000000  97.51055144000000 -535.43336842634506
0.96590461000000 1.48007179000000 115.35901551000001 -535.44791810818595
1.28588488000000 1.51626745000000 105.18113396000000 -535.40960660738801
0.81809815000000 1.69363093000000 115.46568554000000 -535.44301667300397
1.00753410000000 1.58097936000000 107.87351927000000 -535.46798677294896
0.97870996000000 1.71393930000000 137.61898864000000 -535.44519868324699
0.78406103000000 1.67110541000000  82.19296362000000 -535.41196684006695
1.01216699000000 1.81836475000000  90.56845936000001 -535.46654273162301
1.05783386000000 1.66014812000000 114.22807443000001 -535.46557388370695
1.12402639000000 1.70193065000000 113.64446388000000 -535.45558665096496
0.98966752000000 1.75084367000000  98.98119659000000 -535.47358461323199
0.95259126000000 1.74772642000000  98.15535061000000 -535.47391671690900
0.89294208000000 1.79531975000000  92.27145588000000 -535.46420125877103
0.79463639000000 1.83974573000000 101.88231340999999 -535.42625862017803
0.98613002000000 1.58934627000000 133.79963054000001 -535.45071981576200
0.94304841000000 1.57070718000000  76.29859490000000 -535.43252571657797
0.83151155000000 1.64330804000000 111.92507707000000 -535.45091734028199
1.09309810000000 1.83724419000000  99.44924614999999 -535.45760232242196
1.13413661000000 1.66482425000000 115.18199276999999 -535.45321220992298
0.97278877000000 1.73314306000000 108.64638533999999 -535.47342317339405
0.99773382000000 1.88932112000000 108.54502535000000 -535.46006746727301
0.97464877000000 1.83505460000000 126.44590817000000 -535.45075336295599
0.97921197000000 1.51075456000000 102.23074069000000 -535.45498512251402
1.14417349000000 1.65285819000000  84.37273188000000 -535.44321158378398
0.95965473000000 1.60657207000000 103.46794583000001 -535.47216858776505
1.06132036000000 1.66341238000000  93.71376402999999 -535.46533417945398
1.00193040000000 1.71102550000000  88.28537634000000 -535.46844540392317
0.98553507000000 1.96906321000000  96.31757931999999 -535.45531328361596
1.05228442000000 1.71601469000000  61.87533347000000 -535.41894967133203
0.80142083000000 1.97555309000000 105.94606834000000 -535.41372516306899
1.20684844000000 1.70816372000000 122.67361957999999 -535.43261501300003
1.33221787000000 1.67151833000000  89.30742780999999 -535.41166654912195
0.77192523000000 1.71999980000000 108.79908656000001 -535.41812531213293
1.30678342000000 1.69282431000000  74.60965190000000 -535.40221097497295
1.03598632000000 1.73630174000000  79.12329278000000 -535.45617895916905
0.93266941000000 1.88366469000000  95.06185927000000 -535.46305248330304
0.96078498000000 1.84632485000000 106.47409523000000 -535.46609840461394
0.98988051000000 1.85183416000000  94.75150312000000 -535.46663151526400
0.81282123000000 1.70448290000000  92.41185812000001 -535.44104921335497
1.07058268000000 1.80937256000000 112.40561803000000 -535.45853622703601
1.17121596000000 1.74379252000000 100.48337033999999 -535.44956331729895
1.46151163000000 2.03040406000000 102.57228587000000 -535.36471893008797
1.17961577000000 1.77662227000000 109.39177354000000 -535.44424759355002
0.94019319000000 1.92515345000000  92.02514678999999 -535.45904371874701
1.32595681000000 1.64317148000000 107.75497804000000 -535.41739699952996
1.01478785000000 1.74630803000000  60.47286701000000 -535.41997595939597
0.99531147000000 1.58371742000000 103.30233230000000 -535.46876895214200
1.06858840000000 1.62876337000000 125.26656952000000 -535.45454050353499
1.12235995000000 1.61685676000000 104.38521348000000 -535.45667194650605
0.98929929000000 1.44365934000000 114.60945196999999 -535.43448516264891
1.04586826000000 1.69018804000000  90.71027660999999 -535.46618050328800
1.22852449000000 1.66582257000000 111.97696267000001 -535.43670943134703
1.07835543000000 1.71516450000000  97.02951500000000 -535.46549478194697
0.96161204000000 1.43835179000000  86.43891478000000 -535.40627293125601
0.93742758000000 1.98187532000000 106.06533991000001 -535.45058012806601
0.93652944000000 1.72948186000000 105.99628740000000 -535.47366503326316
1.00678301000000 1.78182483000000 120.36456582000000 -535.46088520783803
0.87171306000000 1.95828970000000 106.02021697000001 -535.44350719682700
1.03083662000000 1.77386609000000  81.62630711000000 -535.45992277831897
0.76634272000000 1.55323430000000 107.67919565000000 -535.40714455842101
0.95569706000000 1.75463037000000  82.53197614000000 -535.46379282216196
1.07891021000000 1.66892582000000  86.51432283000000 -535.45726842468900
0.78458399000000 1.70583367000000 106.58245960000001 -535.42801665507693
1.32298942000000 1.77885188000000 100.28057387000000 -535.41681384694505
0.99607065000000 1.75130856000000 118.71334548000000 -535.46521794968703
1.02005335000000 1.68679927000000 108.54991345000001 -535.47220453553996
0.91072634000000 1.83114197000000 116.66613029000000 -535.45796211934316
1.16834778000000 1.78941868000000 105.58510006000000 -535.44703223602403
1.01330633000000 1.92418074000000 106.31887492000000 -535.45643955276398
1.50240686000000 1.52246143000000 104.69318312000000 -535.37024757780716
0.98451477000000 1.88530128000000 100.08818798999999 -535.46382060135295
1.17568183000000 1.77946513000000  98.84117550000001 -535.44708956679005
1.18399279000000 1.92888276000000 104.15784106000000 -535.43192968113203
1.52286394000000 1.50357160000000 105.38982772000000 -535.36311662833396
0.78795083000000 1.74524616000000 112.08358910000000 -535.42617481133402
0.92136221000000 1.52861920000000 111.06268980000000 -535.45939835115701
1.16727375000000 1.95971377000000 104.76178441000000 -535.43153790393103
1.06341432000000 1.85851905000000 107.49791625000000 -535.45773057942301
1.05365418000000 1.83915219000000 112.90116564000000 -535.45769560306098
1.06458871000000 1.98531231000000 102.19034701000000 -535.44603266853699
1.06422159000000 1.65739063000000 127.91635847000001 -535.45258289421997
1.00739326000000 1.93870089000000 110.07015895000001 -535.45323406917396
0.87379805000000 1.67762846000000 115.72815049000000 -535.46207508389205
1.09935074000000 1.71089806000000  85.98513181000000 -535.45558943984997
0.96995554000000 1.54634780000000  87.69441954000000 -535.44962608860897
0.98791092000000 1.86182548000000  87.03281434000000 -535.46311996204099
1.01879335000000 1.80425782000000  91.00819497000001 -535.46705583434095
0.86316605000000 1.64138033000000 114.14997574000000 -535.46025307365301
0.97370533000000 1.75252186000000  96.50008780000000 -535.47350776429096
1.41851754000000 1.71444609000000 111.64629442000000 -535.39750890339405
0.88293234000000 1.64543647000000  65.82610004999999 -535.41083702556296
0.92771611000000 1.86252898000000 102.65893364999999 -535.46422319892395
1.06912960000000 1.52414778000000  99.91495985000000 -535.44920062302299
0.98129384000000 1.68391545000000 129.27132906000000 -535.45782830450401
1.09858295000000 1.72253483000000  82.91979077000001 -535.45282538572997
1.01432573000000 1.66525685000000 110.46301201999999 -535.47197133533291
0.96427325000000 1.70489945000000  86.71054782000000 -535.46783305199483
1.09943037000000 1.63533622000000 115.48159275000000 -535.45828711437400
0.90700691000000 1.64512551000000  90.30637962000000 -535.46461292043602
1.28041338000000 1.79204797000000 104.58269333000000 -535.42441183195297
1.17526114000000 1.50037933000000 102.40845525000000 -535.42644286949098
1.16552569000000 1.69334279000000  84.56463045000000 -535.44225150292698
0.83988947000000 1.77332813000000  92.43335324000000 -535.45121674666302
1.40030290000000 1.59287621000000 100.54172665999999 -535.39819098204396
0.97286451000000 1.53483994000000 104.47359888000000 -535.46175285336994
1.08578129000000 1.82385781000000 104.02294087000000 -535.45902686821000
0.99694821000000 1.83281311000000 119.40826159000000 -535.45786090463901
0.95235887000000 1.47061911000000  67.84810538000001 -535.36724185303103
0.97162323000000 1.54679304000000 108.73742401000000 -535.46457817077498
0.96711431000000 1.55772655000000  78.53011386999999 -535.43525538705103
0.70824178000000 1.81980631000000  96.94439767000000 -535.34997655761902
0.80639133000000 1.72098910000000 112.63756916000000 -535.43786985167299
1.00961321000000 1.63101398000000 102.34462895000000 -535.47211613562297
1.00193456000000 1.67850702000000 123.47921366999999 -535.46348756740099
0.97136033000000 1.80041527000000  69.26308553000000 -535.44411864593292
0.85904522000000 1.73845654000000 106.97161027000000 -535.46041902920797
1.01494970000000 1.70444788000000 124.69074770000000 -535.46053514921198
0.91850273000000 1.51663016000000 109.83795823000000 -535.45662096224999
0.92848846000000 1.48645739000000  87.75831582000001 -535.42950778257705
0.84941428000000 1.63795811000000 125.23728220000000 -535.44757989018501
0.96871548000000 1.87038646000000  90.28545561000000 -535.46431160034797
0.96137519000000 1.74037363000000 103.68781593000000 -535.47444514165602
1.09089115000000 1.57640467000000 113.19680756000000 -535.45642808174091
0.87329499000000 1.76330387000000 103.72411382000000 -535.46352999997100
0.97351178000000 1.75365194000000  97.05720702000001 -535.47359951012697
0.92498436000000 1.73660755000000  59.94600349000000 -535.41344285323896
1.21573971000000 1.70243309000000  80.21764188000000 -535.42812710406099
1.00071135000000 1.62420773000000 113.73404549000000 -535.47032897441204
0.83099895000000 1.80052499000000 102.48226760999999 -535.44769209312096
1.09294761000000 1.87275031000000  97.80942755000000 -535.45464585059199
0.90566862000000 1.74377594000000  95.50481041000000 -535.46968573868401
0.95631259000000 1.78826874000000 103.57291419000001 -535.47172020582002
1.13042999000000 1.78901873000000  96.96732443000001 -535.45474269772296
0.78762250000000 1.69583250000000 119.57550701000000 -535.42331495793292
0.90780650000000 1.55932604000000  92.96044515000000 -535.45587124005897
1.25811144000000 1.68303576000000 110.59390802000000 -535.43127210508317
1.24082614000000 1.71470111000000  96.17376934000001 -535.43546481256601
0.71815142000000 1.71125225000000  83.67321434999999 -535.35703778520997
0.92821967000000 1.60659971000000 119.11757231999999 -535.46622802258105
0.91212493000000 1.64133030000000 123.02504620000001 -535.46273186534802
0.97833458000000 1.74673087000000 105.11214982000000 -535.47377342535697
1.14685705000000 1.66140462000000  94.26510406000000 -535.45203925806800
0.95778928000000 1.78497660000000  99.11308500000000 -535.47229557253797
0.96072311000000 1.75464590000000  64.74835093999999 -535.43191433023298
0.97944015000000 1.93542965000000 120.16501031000000 -535.44673631801800
0.84848669000000 1.85523468000000  98.38740248000001 -535.44975950483399
1.00032594000000 1.69625177000000  65.84189340000000 -535.42948688293291
0.96572131000000 1.85797980000000  81.86244197000001 -535.45992878335517
0.93826246000000 1.83371626000000 102.62065500999999 -535.46764514411700
0.99009365000000 1.73614221000000  79.70854391000000 -535.45988897621100
0.90705855000000 1.61025804000000 137.96198011999999 -535.44391987664005
1.03783990000000 1.78458509000000  97.55408774000000 -535.46828037490798
1.06051477000000 2.17565695000000  99.11219334000000 -535.42582722818599
1.01500736000000 1.74579072000000  74.67836370000001 -535.45134093031800
0.94249909000000 1.59019555000000 125.88357759000000 -535.46009000739605
0.94123123000000 1.59861742000000  75.21611655000000 -535.43624781646304
0.93417758000000 1.59989999000000 118.63235095000000 -535.46651631823602
0.84955120000000 1.70272183000000 108.08985663000000 -535.45855454796401
1.00580859000000 1.52447274000000 108.21975587000000 -535.45863657332495
0.92199075000000 1.66324247000000  83.75208264000000 -535.45998339691300
0.89004718000000 1.58187438000000  97.42656945000000 -535.46091687872195
1.22574584000000 1.70281900000000  82.89887603000000 -535.42920656672402
0.96199896000000 1.61813828000000 145.05337832000001 -535.43675062911291
1.37806312000000 1.67682324000000  73.76475454000000 -535.38568099113104
0.97814851000000 1.77158694000000 108.01321032000000 -535.47146589600300
1.02927617000000 1.56775209000000  85.89468110000000 -535.44880881036499
0.95404597000000 1.97141269000000 112.24728055999999 -535.44904107982700
1.13524594000000 1.69868006000000 140.17296761000000 -535.42357002929396
1.05138634000000 1.57899287000000  90.11933016000000 -535.45431716527696
1.00880339000000 1.80018108000000 110.05588530000000 -535.46703624230997
1.00844124000000 1.67498877000000  75.92743588000000 -535.44941182257901
1.04100456000000 1.87772021000000 106.40014186000001 -535.45890871077199
0.95239675000000 1.65786346000000  99.86885015999999 -535.47454657251706
1.19934000000000 1.71603449000000  90.92878825000000 -535.44152962092301
1.05252918000000 1.67397655000000  86.13568580000000 -535.46052513544703
1.26866001000000 1.86988882000000 102.39284068000001 -535.42115496863300
0.99245901000000 1.62278338000000 117.89150471000001 -535.46825549066000
0.87026260000000 1.66495017000000 115.51162850999999 -535.46149581686200
0.93607428000000 1.45858134000000  84.43448994000001 -535.41115791242203
0.96818195000000 1.58467460000000  92.99899908000000 -535.46381885685003
1.40775681000000 1.69892087000000  63.67318620000000 -535.37165318383904
1.04082364000000 1.71869421000000  71.86643635000000 -535.44304274158401
1.03033129000000 1.71517184000000 101.65596552000000 -535.47195477943797
1.48195975000000 1.67890449000000 115.68631329999999 -535.38437896917901
0.93088137000000 1.86649450000000 116.12415772999999 -535.45679121321200
1.07372450000000 1.85835259000000  96.14146692000000 -535.45860677130804
1.44620967000000 1.87481010000000 105.11223308000000 -535.38344660475798
0.96941089000000 1.73873321000000 104.15459803000000 -535.47444349970601
1.29660000000000 1.69568448000000 121.01005471000001 -535.41631837240891
1.02819398000000 1.60940469000000 110.61158103000000 -535.46845276643899
0.95768004000000 1.89863349000000 101.73506786000000 -535.46230017753805
1.29189814000000 1.70043766000000 103.57164824000000 -535.42577469592300
1.05792426000000 1.86715074000000  99.28689146000001 -535.45984234786602
0.97268103000000 1.76137810000000 110.89826207999999 -535.47087261308195
1.47055839000000 1.66373178000000  98.18064898999999 -535.38862233987800
1.29549929000000 1.68689003000000 104.46960278000000 -535.42499439641495
1.07003308000000 1.66353236000000 125.87039832000001 -535.45409483321896
1.00728721000000 1.63513624000000  92.40418597000000 -535.46785233522803
0.93443161000000 1.72983110000000 100.96428423000000 -535.47402065789095
0.99886213000000 1.88731230000000  93.36534285000000 -535.46292820946906
1.10338395000000 1.75171081000000  95.15448142000000 -535.46047279773802
1.00720252000000 1.69820986000000 125.36886327000001 -535.46059960134198
0.95379314000000 1.69508207000000  94.92958801000000 -535.47362168891516
1.29290697000000 1.64947470000000 108.75191139000000 -535.42423446846317
0.85734516000000 1.66852189000000 113.12810578000000 -535.45941515113998
1.05056717000000 1.69573160000000 138.35346625000000 -535.43935984367101
0.94937754000000 1.90441834000000  74.61984661000000 -535.44933666256497
1.07535385000000 1.57315536000000  91.43798552000000 -535.45166791580402
0.92788090000000 1.94657525000000 103.96881979000000 -535.45483365085397
1.04057742000000 1.68782140000000 110.85584227000000 -535.46931948426595
1.23136496000000 1.66660818000000 112.01022299000000 -535.43612230409497
1.31245342000000 1.69322764000000 101.38484527999999 -535.42148438829497
1.07416699000000 1.77482328000000 107.77599762000000 -535.46301583730894
1.22113645000000 1.70885569000000 114.26377991000000 -535.43655044564900
1.32866543000000 1.60146413000000 106.63032576000001 -535.41439099037598
1.15528425000000 1.71011579000000 104.41048748999999 -535.45321963899403
1.14926831000000 1.77916458000000  98.82882819000000 -535.45207739084299
1.16307607000000 1.61481931000000 107.05034040000000 -535.44904038916297
1.22899489000000 1.70440646000000  91.44226586000001 -535.43572007460398
1.32431747000000 1.66482779000000  89.28431293000000 -535.41293380228399
0.85020318000000 1.93656717000000 107.88362334000000 -535.43896434958697
0.92009954000000 1.59463316000000  76.20690387000000 -535.43590404789290
1.03326137000000 1.76200718000000 110.84354233000001 -535.46728114114717
1.00310420000000 1.72208692000000  83.12536273000001 -535.46335325242205
1.10935542000000 1.69509153000000  91.65086330000000 -535.45816133477695
1.04921033000000 1.74786031000000  79.27666447999999 -535.45530300575103
1.12648979000000 1.75667036000000  99.19608368999999 -535.45721077018800
0.84111414000000 1.73872724000000  91.99671603000000 -535.45256240153117
0.98137383000000 1.57780948000000  83.51516348000000 -535.44979349470498
1.08156374000000 1.48951610000000 101.30934839000000 -535.43855601030316
1.02558234000000 1.58928503000000 102.49927085000000 -535.46702833368397
1.03442110000000 1.63063255000000  95.74770891999999 -535.46750911439005
0.76231489000000 1.73506614000000 100.89973110000000 -535.41126573182999
0.72822720000000 1.60761678000000  94.85029889000000 -535.37397400051395
0.77904079000000 1.72177170000000  93.44584782000000 -535.42178856971998
0.86869866000000 1.78764146000000  98.39221396000001 -535.46106698887604
0.95469724000000 1.78297144000000  65.23626446999999 -535.43453227909697
1.06071444000000 1.60865341000000  95.38360670000000 -535.46214672274095
1.44678794000000 1.54639419000000 101.74167232000001 -535.38329312820304
1.06971681000000 1.72848734000000  86.30701625000000 -535.46038495768698
0.76309493000000 1.71160022000000 130.77800375000001 -535.39321821193698
0.90105592000000 1.64480335000000  91.37046893000000 -535.46474817341596
0.99407609000000 1.85104638000000 103.32809849000000 -535.46611088552402
1.01690568000000 1.47937258000000  98.82366783000001 -535.44075838134404
1.27750170000000 1.71189200000000  91.33594356000000 -535.42567049391300
0.93942294000000 1.80434808000000  61.73844686000000 -535.42592225857697
1.03608501000000 1.68828668000000 113.60810760000000 -535.46838420987001
1.13887876000000 1.68350225000000 102.21176779000000 -535.45644510212605
1.18691934000000 1.65825790000000 120.86037594000000 -535.43898877171296
0.87406502000000 1.78575576000000 118.24182426000000 -535.45430714910799
0.96046147000000 1.71362021000000  81.47343051000000 -535.46188213201299
0.96293143000000 1.74049482000000 129.12974374000001 -535.45551598918598
1.16632795000000 1.49748757000000 103.61824949000000 -535.42784203016095
1.17271595000000 1.73667500000000  99.77751632000000 -535.44946455979004
1.14949833000000 1.64169610000000 114.53697216000000 -535.45039816480005
1.39191991000000 1.69383383000000  94.04276751000000 -535.40303939320404
0.95890651000000 1.66117621000000  73.93796850000000 -535.44452166302892
1.26649527000000 1.65286566000000  97.20790277000000 -535.42915766661201
0.97488588000000 1.70136825000000 111.01841111000000 -535.47345988628899
0.97417669000000 1.61849650000000  89.66683833000000 -535.46496752569692
1.47499857000000 1.66458544000000 102.02094753999999 -535.38870133476803
0.88473017000000 1.55955864000000 100.03281995000000 -535.45795405276999
1.04883783000000 1.68292232000000  96.44638630999999 -535.46890508756201
1.03211548000000 1.52044991000000 108.14021535000001 -535.45545273520395
0.89280309000000 1.71598054000000 115.64656725000000 -535.46477329283698
1.03599497000000 1.70405277000000  86.81335654999999 -535.46429549926893
0.94935497000000 1.52428066000000  97.37733703000001 -535.45529790403691
0.90632165000000 1.54863023000000 112.62574818000000 -535.46115194312199
0.95174814000000 1.71737337000000  72.58703875000000 -535.44679476880401
1.05179861000000 1.62210893000000 110.37351253000000 -535.46676938157293
1.04590466000000 1.71026094000000  83.42930092000000 -535.45988732387696
0.97804563000000 1.65680310000000 113.84003353000000 -535.47225958833201
0.85001924000000 1.68946921000000  91.88921550000001 -535.45552152173502
0.74735251000000 1.84618564000000 102.59829707000000 -535.39001560095903
1.06674277000000 1.62643105000000  99.78082577000001 -535.46517066721299
1.34926910000000 1.69862283000000  75.18128387000000 -535.39483117174996
1.01400465000000 1.59475702000000  83.78326085000000 -535.45195817625904
1.25303213000000 1.78956082000000 100.02620812000001 -535.43090451504600
1.21475695000000 1.48351587000000 101.97927278000000 -535.41339168191291
0.98845312000000 1.42620875000000 124.21629315000000 -535.42338484495804
1.39842065000000 1.85449116000000 103.17603916000000 -535.39534759867001
1.00507197000000 1.70363069000000  76.38613663000000 -535.45272925639495
1.32267231000000 1.58730280000000 101.56346206000001 -535.41350889691103
0.92930408000000 1.75020489000000 100.36165932000000 -535.47288376813003
1.27936022000000 1.68062214000000 129.32949020000001 -535.41136540327000
0.97214643000000 1.66643002000000  99.43810123000000 -535.47479940298604
1.14162471000000 1.83236777000000 102.23038852000001 -535.44959743560901
1.02280385000000 1.63517618000000 111.79418665000000 -535.46998975629003
1.05385108000000 1.71665958000000 124.17881079000000 -535.45663493719201
1.08541396000000 1.52075674000000 104.88470552000000 -535.44822458589499
0.85244605000000 1.71317156000000  87.02231770000000 -535.45247519610803
0.99693287000000 1.73491572000000 143.56648779000000 -535.43384736349901
0.68299540000000 1.70465820000000 123.38345528000001 -535.31089151787296
0.97282490000000 1.52555686000000  83.13597407000000 -535.43580955984601
1.00684180000000 1.75607801000000  70.40590269000000 -535.44445405227600
0.90274906000000 1.72460463000000 121.43335801000001 -535.46106008485594
0.98919343000000 1.67932899000000  87.52176639000000 -535.46728299333995
0.99634301000000 1.90892544000000  99.68193169000000 -535.46104003922403
0.84349071000000 1.59454056000000  94.43137151000001 -535.44840695850701
0.92403158000000 1.89718061000000 111.81065731000000 -535.45608444209302
1.14098859000000 1.68250239000000  81.34075967000000 -535.44228680624803
0.88791302000000 1.72634313000000  81.23880593000000 -535.45478980999997
1.03001553000000 1.64543998000000 119.61069684000000 -535.46477882824001
0.96791517000000 1.47202446000000 110.49745805000001 -535.44585520414796
0.84199590000000 1.67615547000000 105.57495003000000 -535.45684559627102
1.04598095000000 1.73762262000000 107.89228611000000 -535.46852769059797
1.50411566000000 1.70045506000000 103.17938255000000 -535.38352680608500
1.00694132000000 1.56239511000000  80.01679054000000 -535.43874610693797
0.83207798000000 1.64976778000000 128.49272169000000 -535.43797125510798
0.95009571000000 1.81626022000000  87.91804375000000 -535.46652772233199
1.30560465000000 1.94672802000000 102.18890757000000 -535.40579009079693
1.43954214000000 1.58676246000000  99.52689574000000 -535.38953489282699
1.11913482000000 1.71959393000000 116.14950235000001 -535.45420094051099
0.91029022000000 1.80647952000000 109.56413182000000 -535.46500110312002
1.11677856000000 1.64122080000000 112.54441222000000 -535.45720490993403
1.10136951000000 1.87242824000000 106.72654529000000 -535.45133858606800
0.92971430000000 1.79036557000000  85.26781801000000 -535.46453432904491
0.85934084000000 1.72236414000000  99.78071196000000 -535.46169386671102
0.74095758000000 1.55927591000000 107.60421952000000 -535.38632977558700
1.01049496000000 1.53706612000000 117.85747108000000 -535.45823776833595
0.91781495000000 1.56922697000000 112.41590669999999 -535.46542013707096
0.98179619000000 1.70625554000000 109.03119289999999 -535.47399852219496
1.18978957000000 1.70519179000000 115.59062237000001 -535.44204226888201
1.03644620000000 1.69944703000000  96.69659964000000 -535.47057260565498
0.94094269000000 1.85243323000000  73.81914073000000 -535.45012822633203
1.01707740000000 1.67753407000000  73.78467816000000 -535.44503522442892
1.20846723000000 1.69791571000000  86.49567130000000 -535.43601970603299
0.99980657000000 1.68331976000000 108.30365288000000 -535.47376284203006
1.04916679000000 1.77017513000000  95.65711813000000 -535.46741770339997
1.21887891000000 1.74531309000000 111.95164323000000 -535.43693792800195
1.05401819000000 1.73268243000000 133.12035373000001 -535.44467496490404
0.93554521000000 1.86759668000000  84.21085999000000 -535.46008219715998
1.07966279000000 1.68901150000000  72.12123502999999 -535.43714132986895
0.90174361000000 1.57238930000000  84.61338301000001 -535.44602900892301
1.15346609000000 1.71759946000000 122.40473369999999 -535.44277494782898
0.92172728000000 1.81073966000000 117.79171479000000 -535.46015848345803
0.89341065000000 1.67313149000000 109.65942892000000 -535.46902893870697
1.04244527000000 1.69000934000000  70.25713645000000 -535.43717353802901
0.91497233000000 1.86941355000000 108.15417741000000 -535.46025660712098
1.08797414000000 1.71967238000000 108.68066417999999 -535.46334475110598
0.78269045000000 1.74335204000000  86.70878814000000 -535.41887595936896
0.83008278000000 1.81859889000000 108.41657244000000 -535.44396187085204
0.84799138000000 1.73987058000000  89.71899457000001 -535.45340355592805
1.01796053000000 1.55662217000000  95.44297688000000 -535.45877455961693
0.93880343000000 1.89803335000000  90.83762268000000 -535.46124674756800
0.92975443000000 2.01587825000000 110.41552910999999 -535.44361701469597
0.81740877000000 1.64506863000000 127.09802252999999 -535.43331121736901
0.95172712000000 1.75247089000000 116.23713540000000 -535.46784105900804
0.98509920000000 1.84857357000000 108.28690931000000 -535.46483343013597
1.20866526000000 1.71527987000000  90.74308488000000 -535.43954679148703
0.87144509000000 1.68505376000000 114.17028071999999 -535.46236639277299
0.92942712000000 1.78301424000000  74.71056093999999 -535.45157422959517
0.97872401000000 1.59843686000000 101.52332303999999 -535.47071345295797
1.05889469000000 1.65696582000000  98.02612809000000 -535.46742883635898
0.88898711000000 1.80940258000000  93.40221185000000 -535.46306955976695
0.94986602000000 1.71184162000000  75.40716523000000 -535.45181549943004
1.14282326000000 1.77224608000000 111.69923527000000 -535.45021600289692
0.94987721000000 1.70276934000000  88.48672562000000 -535.46919567298505
0.74870834000000 1.61459131000000  99.46492545000000 -535.39767811090803
1.07550274000000 1.56802859000000  96.30612995000000 -535.45504867008697
1.36127624000000 1.67821862000000 126.14361674000000 -535.39865388156602
1.00249710000000 1.66651350000000 143.90160209999999 -535.43646578389701
0.86582614000000 1.59863531000000  87.19271270000000 -535.44753122252700
1.03058749000000 1.79980749000000 102.58882842000000 -535.46790505083402
0.85329592000000 1.63504142000000 121.88057676000000 -535.45190538747897
0.91799117000000 1.69525437000000  77.76953080000000 -535.45249914062094
0.97039253000000 1.64411961000000  60.05768956000000 -535.40169215483502
0.81780202000000 1.69023534000000 109.06222914999999 -535.44612493040597
1.39630850000000 1.53522554000000 105.76871727000000 -535.39191789665597
1.52667506000000 1.67971744000000 100.25723567999999 -535.37926265068893
1.00782803000000 1.63704354000000 122.99321873000000 -535.46354693717694
1.25060398000000 1.69949144000000 132.04413479999999 -535.41323091239701
1.17681274000000 1.43914092000000 102.05736457000000 -535.40353950519000
0.86702634000000 1.78178851000000  87.99729189000000 -535.45667592513701
0.98895947000000 1.56962182000000 102.53228335999999 -535.46692238009598
0.85725376000000 1.96288954000000 103.35715876000000 -535.44001760042499
1.26459648000000 1.71190445000000  83.10350176999999 -535.42182874805405
0.94404732000000 1.83269951000000  99.82157648000000 -535.46840034567504
1.19385137000000 1.69238076000000 105.76006323000000 -535.44575173060900
0.93892506000000 1.59879193000000 112.61862390000000 -535.46989141723600
0.89613560000000 1.55807858000000 103.25175487999999 -535.46107447385691
1.24623001000000 1.69641829000000 103.68689114999999 -535.43532648130201
1.03129421000000 1.60466383000000 117.39719445000000 -535.46457593170805
0.89105332000000 1.63371546000000  65.57744723000000 -535.40938211984303
0.95336425000000 1.88611114000000  88.40368586000000 -535.46201854814899
0.80840734000000 1.72492663000000  96.70684541000000 -535.44079322635503
0.84376484000000 1.69399025000000  78.54510858000000 -535.43711898239201
0.92668504000000 1.89023970000000 121.55279184000000 -535.44878380729097
0.90336878000000 1.70459046000000  71.82543087000001 -535.43938630005096
0.95603254000000 1.49432644000000  86.02395559000000 -535.43064268423404
0.80439179000000 1.63841089000000  86.77599067000000 -535.42793907743498
1.27549064000000 1.66617007000000 120.38473206000000 -535.42155555145996
1.15149667000000 1.48570557000000  98.06901451000000 -535.42336440834799
1.41829315000000 1.65291321000000 102.04542213000001 -535.39923350541005
1.07889324000000 1.73009076000000 100.75539050000000 -535.46573594568997
0.82357846000000 1.76036614000000 108.89840153999999 -535.44567572333403
0.99038572000000 1.76399559000000 115.50253574000000 -535.46725583439797
0.95369704000000 1.96720313000000 115.32976838000000 -535.44722773116405
0.89556088000000 1.74432250000000  80.00259714000001 -535.45483408778296
0.99727216000000 1.49377276000000  94.83527282000000 -535.44308363533798
1.12541541000000 1.70387862000000 116.15951927000000 -535.45364142107917
1.12116499000000 1.71968154000000  95.53362679000000 -535.45828847414396
1.05628316000000 1.67328466000000  68.57202927000000 -535.43026736481397
0.89626728000000 1.51847318000000  93.81457881000000 -535.44541142665901
0.93621422000000 1.55107734000000 136.91581024999999 -535.44355535524801
0.79281664000000 1.67808427000000  78.95455653000000 -535.41253167395200
1.07286679000000 1.72071255000000  95.26395124000000 -535.46564174522996
0.99135407000000 1.83625940000000 113.76898060000001 -535.46248515178092
0.86121984000000 1.57626066000000 105.42937636000001 -535.45684888551295
0.94149075000000 1.48982749000000 122.67282238999999 -535.44685982162196
0.95626472000000 1.56776997000000  91.18274804000001 -535.45890166569097
0.97538408000000 1.86112877000000  72.63984773000000 -535.44918210155299
1.05896526000000 1.73239053000000  74.76211325000000 -535.44718441256202
0.79791829000000 1.78943270000000  94.29519358000000 -535.43151164313804
0.84659253000000 1.60060556000000  88.15086805999999 -535.44340474986097
0.78601008000000 1.71803035000000  87.88719558000000 -535.42224326123198
0.93270470000000 1.59076391000000  74.34775011000001 -535.43172369206900
0.95488124000000 1.74228931000000  56.83776476000000 -535.40663309716899
0.93697579000000 1.75450392000000  70.61143767000000 -535.44395774303405
1.01075870000000 1.69098891000000 132.83237789000000 -535.45138759289000
1.47641220000000 1.70858137000000 104.70347167000000 -535.38842848148397
1.14397964000000 1.76998563000000 110.51331891000000 -535.45079762378998
0.82655651000000 1.69844802000000 112.38459552000000 -535.44840630477199
0.81648097000000 1.67308100000000  89.85217629000000 -535.43996923492898
0.98441781000000 1.87026375000000  99.34059533999999 -535.46536129759295
0.76594600000000 1.68587560000000  65.82245671000000 -535.36282776822998
1.08287791000000 1.78730433000000  97.25110236000000 -535.46248659177400
1.13860461000000 1.65429867000000 122.89476268999999 -535.44615891848002
1.00124097000000 1.73349742000000 104.46598118999999 -535.47350880925603
1.06393390000000 1.66589467000000 111.09978249000000 -535.46640536121299
1.01634255000000 1.63223847000000  90.10490762000001 -535.46489002174303
1.01922712000000 1.64920794000000 112.91518687000000 -535.47023593407698
1.22357558000000 1.65512387000000 115.91390040000000 -535.43541888126401
0.97272711000000 1.75107352000000 100.79554950000001 -535.47413627189701
0.78157510000000 1.67416807000000 122.21058444000001 -535.41778531611203
1.09657483000000 1.68759037000000  84.36627734000000 -535.45344727952295
1.05127149000000 1.73631771000000 116.37537654000000 -535.46319301241203
1.02534639000000 1.66092314000000 102.46360464999999 -535.47221037229201
1.00130097000000 1.58802066000000 115.85965419000000 -535.46666631163600
1.00469510000000 1.91269810000000 110.66474139000000 -535.45595011881699
1.06022312000000 1.74667625000000 108.95880006000000 -535.46598235720501
1.31788163000000 1.68269012000000 108.08218599999999 -535.41968847723695
1.12070132000000 1.72336912000000  76.93008935000000 -535.44181249452492
0.83302600000000 1.90365979000000  99.03026097999999 -535.43917680122001
0.94898384000000 1.70668123000000 117.02686725000000 -535.46949305985800
1.12815018000000 1.69168014000000 126.41562240000000 -535.44389603687000
0.90670375000000 1.70599030000000 115.07951041000000 -535.46764212287098
1.16692455000000 1.72411183000000 107.72382168999999 -535.44991429449794
0.90210203000000 1.79623917000000 106.24084295999999 -535.46612986058096
1.20542529000000 1.62782871000000 111.84772289999999 -535.44033304192203
0.97628290000000 1.57963670000000 142.45845689000001 -535.43872841343705
1.05411246000000 1.69127412000000 120.17905030999999 -535.46142395188201
1.03122745000000 1.72322800000000 121.36385866000001 -535.46169220651404
1.18574546000000 1.72024775000000 119.57959701999999 -535.43920135630799
1.00466133000000 1.78322377000000  94.93669380999999 -535.47057393726800
0.93484687000000 1.61208469000000 123.38208002000000 -535.46342109543298
1.20864523000000 1.69896007000000 124.91628430000000 -535.43023167760100
0.92532420000000 1.88938632000000 107.12172455000000 -535.45969532310005
0.92559535000000 1.76111680000000  59.04452160000000 -535.41341459817102
1.04965429000000 1.55306806000000 101.40737496000000 -535.45863068108099
1.35267839000000 1.75220449000000 103.68215922000000 -535.41167296241201
0.98708384000000 1.70294950000000 113.35199573000000 -535.47183607147201
1.21486437000000 1.60043726000000 104.14516707000000 -535.43763660074603
1.30822428000000 1.72392352000000 107.59066310999999 -535.42115816641797
0.86823988000000 1.70037431000000 102.37483037000000 -535.46473135950396
0.98731151000000 1.63476594000000 100.98122143000001 -535.47334706572599
0.86991408000000 1.87159018000000 103.24983216000000 -535.45375633333595
1.20931155000000 1.85151259000000 103.12531778000000 -535.43483418865401
1.13062763000000 1.59265858000000  96.64721450000000 -535.45025449783691
0.98330168000000 1.60327881000000  94.14701758000000 -535.46712805256493
1.13247629000000 1.70183941000000  86.59209253000000 -535.45050295861699
1.04279258000000 1.57721746000000  92.91028853000000 -535.45788935293206
1.11131174000000 1.46416526000000 105.21552681000000 -535.42721397305195
0.98563708000000 1.72749996000000 101.79689368000000 -535.47467765495298
1.07877269000000 1.68176562000000 125.21985208000000 -535.45334494870804
0.95975026000000 1.70543920000000 125.78980713999999 -535.46142969854600
1.21013976000000 1.62226222000000 104.03173414000000 -535.44043177954302
0.99270818000000 1.70142398000000  88.49597713000000 -535.46888494043299
1.18285217000000 1.71743145000000 116.02645462000000 -535.44270624130195
1.09848889000000 1.71481620000000  79.71954454999999 -535.44869825872502
1.00166462000000 1.82141275000000  90.27161311000000 -535.46687361046804
0.98411672000000 1.77600186000000 103.41356831000000 -535.47235096920997
1.06166195000000 1.76863915000000 102.73747013000001 -535.46638053028505
0.98666396000000 1.86527611000000  74.78394259000000 -535.45179246850716
1.20254884000000 1.68799604000000  95.99271329000000 -535.44303601338197
1.22202293000000 1.51434525000000 104.33262946000001 -535.42179006097399
1.03849804000000 1.67674511000000 138.80002708999999 -535.44074204410595
1.27759210000000 1.77615954000000 104.17006314000000 -535.42607685994301
0.86352477000000 1.60602658000000  92.87215487000000 -535.45460505158599
1.08684953000000 1.80218919000000 103.41291617000000 -535.46067490341295
0.98306362000000 1.70953101000000 102.41214758000000 -535.47516179828801
1.02471188000000 1.74623859000000 122.78204318000000 -535.45959982623299
0.88862813000000 1.70216498000000  98.20276898000000 -535.46852374348896
0.98431548000000 1.68341132000000  90.52674903000000 -535.47035502441804
1.01162960000000 1.57446997000000  79.49036857000000 -535.44029136596600
1.06923876000000 1.68725288000000  74.42540102000000 -535.44252531265397
1.00801398000000 1.60021573000000  82.94883844000000 -535.45194049268696
1.22287661000000 1.90980784000000 101.95725390000000 -535.42684188573116
0.87633609000000 1.43427920000000  93.27739954000000 -535.40787585341798
1.23911671000000 1.75365904000000 104.72913831000000 -535.43514454612796
1.04450625000000 1.62512523000000  84.11028075000000 -535.45435587724603
0.95321958000000 1.63482124000000 107.40279049999999 -535.47401234427116
0.88036275000000 1.79286063000000 116.51139572000000 -535.45656229466101
0.86412881000000 1.47180869000000 104.35671803000000 -535.43289065700606
1.10127742000000 1.76194886000000  95.39389758000000 -535.46052826712696
0.91069913000000 1.66421769000000 145.18732233000000 -535.43359649439697
1.01488484000000 1.68373943000000 100.93496222000000 -535.47339184479904
0.97431521000000 1.78509052000000  90.61609274000000 -535.46988557940995
0.71450524000000 1.59874824000000 101.41350950000000 -535.36138434462805
0.87310444000000 1.67844328000000 110.45422852999999 -535.46466718282795
0.97045118000000 1.54617456000000  98.34452413000000 -535.46121825655291
0.72840405000000 1.99906932000000 105.24149675000000 -535.35236259265503
0.79273148000000 1.71941467000000 107.52548738000000 -535.43240955155397
1.08034315000000 1.70654110000000 112.58384150000001 -535.46303502061403
0.90199343000000 1.53929200000000  99.33548926000000 -535.45645308136204
0.95560219000000 1.80810159000000  94.67328655000000 -535.47013740127693
0.83383896000000 1.76028808000000 101.68514227999999 -535.45161363333796
0.99334366000000 1.83202188000000 122.52758008000001 -535.45496522064195
1.27048169000000 1.65036766000000  97.03681129000000 -535.42812802524998
1.03947726000000 1.72850406000000 108.28269166000000 -535.46947137147504
0.97251102000000 1.75173830000000 113.33624291000000 -535.47004646566893
1.03045745000000 1.82333960000000  91.46782346000001 -535.46513064003500
0.78194447000000 1.70449357000000 138.81063463000001 -535.39641267155503
1.34094178000000 1.70723393000000  92.91501418999999 -535.41316584838717
1.12171647000000 1.55257254000000 102.00300770000000 -535.44813659604199
1.28809703000000 1.68987946000000  62.07625081000000 -535.38802019212096
1.20728070000000 1.75493250000000 103.69192102000000 -535.44177947054004
1.00572056000000 1.72583873000000 130.09393186000000 -535.45374336658699
0.92489939000000 1.85523919000000 105.47139219000000 -535.46385400418501
1.07011091000000 1.62883250000000 118.49574431000001 -535.46039023101696
0.94918708000000 1.94256844000000 114.35451749000001 -535.45071689254701
1.06869397000000 1.74514461000000 100.08425369000000 -535.46664796161701
1.05443662000000 1.70341903000000  80.36593439000001 -535.45479592336596
1.01613841000000 1.93635987000000 103.73442546000000 -535.45590735966891
1.37175561000000 1.68694121000000 123.29373379000000 -535.39929330623397
1.05864923000000 1.93935502000000 109.12015946000000 -535.44897597448892
1.04829567000000 1.60245241000000 122.62186688000000 -535.45850154732295
1.39344873000000 1.68379037000000  86.81191968000000 -535.39755264600399
0.99607852000000 1.86954222000000  89.08585078999999 -535.46325167944804
1.01138829000000 1.64227824000000 100.35591451000001 -535.47224309807291
1.20949321000000 1.69047926000000  94.50816598999999 -535.44106477183198
1.22148467000000 1.84843422000000  99.25613328999999 -535.43323570918699
0.91236831000000 1.62423183000000  87.07769521000000 -535.45959058545498
0.97907984000000 1.57037373000000  70.49527467000000 -535.41801160509499
1.01581079000000 1.92955766000000 107.08567064000000 -535.45531083165702
1.04034189000000 1.47855452000000  97.38125663000000 -535.43692389584203
0.94068676000000 1.96832048000000 105.48292383000000 -535.45262842464604
0.84799788000000 1.74694361000000  94.33034859999999 -535.45593388563498
0.94317437000000 1.97034465000000 103.94112446000000 -535.45314201806400
0.91284121000000 1.67010568000000  82.84070628000001 -535.45821102305001
1.30866594000000 1.66148644000000 108.40565829000001 -535.42133684521195
0.97022449000000 1.58597280000000  91.27851883000000 -535.46226636348604
0.94760990000000 1.81723487000000  67.52050780000000 -535.44014488982396
0.96860675000000 1.63814834000000 135.47860277000001 -535.45064516098205
0.97543044000000 1.70528144000000 103.81278983999999 -535.47535969157502
1.05607222000000 1.70195724000000 121.22204494000000 -535.45992427388398
1.03290383000000 1.58094197000000  85.87074780000000 -535.45108885568698
0.97501317000000 1.58504900000000 104.88564430000000 -535.46996593867800
1.05274076000000 1.66128192000000 137.89925173000000 -535.44074621397499
0.99078225000000 1.96595655000000 122.46008140000001 -535.44063729515199
0.92940849000000 1.81972007000000  80.49909392000001 -535.45879436895200
1.03673905000000 1.62962666000000 129.40468801000000 -535.45386811225399
0.94077006000000 1.75505749000000 110.06991472000000 -535.47114500965495
0.91794674000000 1.69277341000000  55.78215038000000 -535.38986939487700
0.77871312000000 1.72839790000000 117.94865468000000 -535.41714216860896
0.97831547000000 1.69318233000000 121.41364114000000 -535.46621717137998
0.98446751000000 1.66639902000000 132.40005676000001 -535.45414509009697
0.96305028000000 1.63401327000000 128.37403337000001 -535.45961403621698
0.93534751000000 1.69079245000000 102.17267705000000 -535.47477111771605
1.13560357000000 1.68382401000000  66.67459681000000 -535.41825241644597
1.29682580000000 1.79716528000000 105.09088883000000 -535.42049755593700
0.98663966000000 1.84147889000000  88.28839524000000 -535.46524997364702
1.01183590000000 1.59689927000000 130.58352998999999 -535.45350017503097
0.90196314000000 1.63084117000000 102.81472727000001 -535.46986578757196
1.07064485000000 1.55922701000000  95.97279245000000 -535.45387324574892
1.03610845000000 1.68458403000000  77.95540214000000 -535.45182075903995
0.92158783000000 1.56557974000000  74.51563815000000 -535.42472635904403
1.46445606000000 1.69894917000000  81.09208657000001 -535.37861629847498
0.96849328000000 1.93125668000000 121.28639620000000 -535.44618694949895
0.96876605000000 1.47525795000000 120.46430846000000 -535.44432167199795
0.97291699000000 1.70252359000000  54.57431457000000 -535.39255725861005
1.13366511000000 1.78775470000000  95.97653772000000 -535.45408694644891
1.00478550000000 1.58476658000000  96.87880134000000 -535.46558418108395
0.95952855000000 1.46842117000000 101.29372256000001 -535.44103519376495
1.17156919000000 1.59365698000000 104.03701888000001 -535.44547030405602
0.77106682000000 1.74802815000000 111.96081891000000 -535.41450223387903
1.18598751000000 1.54450350000000 105.99474576999999 -535.43575314136297
1.12982827000000 1.80061777000000  96.96597502000000 -535.45417230232704
0.89283463000000 1.93676221000000 106.00326975999999 -535.45055977153504
0.77322207000000 1.66381629000000 123.40988836000000 -535.41110888122091
0.80052092000000 1.72758758000000  77.23475344000001 -535.41691069270598
0.84038334000000 1.68555982000000  71.52452196000000 -535.42043654211898
1.11190450000000 1.58357621000000 100.94661736000000 -535.45429209740405
0.99487364000000 1.64625581000000  69.56045464000000 -535.43213826317196
0.94038455000000 1.93281265000000 120.55978408999999 -535.44595100954405
1.43932486000000 1.67162800000000 114.55554393000000 -535.39288693225706
1.08854042000000 1.82017696000000  96.66078901000000 -535.45951676446100
0.85594739000000 1.73780630000000 103.36542879000000 -535.46024532785202
0.86817477000000 1.78156383000000 118.95965132000001 -535.45258578310893
1.29085200000000 1.69623090000000 110.78145001000000 -535.42427011308905
0.89586488000000 1.68885396000000  89.38813132999999 -535.46447181084295
0.94389381000000 1.67168745000000 103.55385572000000 -535.47511282434198
1.04168721000000 1.72114552000000 106.23751084000000 -535.47010872336398
0.96847463000000 1.64761542000000 134.28361452999999 -535.45226779663597
1.40399047000000 1.79371317000000 105.10273366000000 -535.39855504015998
1.19734243000000 1.72327780000000  96.05129828000000 -535.44421606016999
0.95334204000000 1.57112946000000 126.40148766000000 -535.45821977327898
1.02054139000000 1.52233825000000 114.08559120000000 -535.45620561310898
1.01389841000000 1.78965518000000  85.09118788000001 -535.46424963472896
1.39566928000000 1.78652004000000 100.55314405999999 -535.40129652782900
1.23496143000000 1.54418513000000 100.71220026000000 -535.42439377394317
1.04419766000000 1.69694704000000  93.86190123999999 -535.46850085175504
1.24713320000000 1.64488036000000  92.75889481000000 -535.43032828428295
1.22945769000000 1.60618505000000 101.96043702000000 -535.43488984743396
0.81986594000000 1.80278478000000 111.91384454000000 -535.43909094730202
0.92495854000000 1.68320261000000  65.16684443000000 -535.42252087739803
0.93307661000000 1.77153855000000 113.12179191000000 -535.46788612051205
0.96052609000000 1.81258159000000  72.53425602999999 -535.44977315770905
0.98557439000000 1.67015287000000 125.70680406000000 -535.46212055341402
1.08327736000000 1.89695225000000  97.77603639000000 -535.45378851772796
0.97871692000000 1.84290486000000 114.39438611999999 -535.46177229654199
1.12544877000000 1.82753628000000  98.26917199000000 -535.45316950237498
1.14748151000000 1.69824192000000  65.28824075000000 -535.41533475518702
0.91434777000000 1.57723896000000  95.05347530000000 -535.46188549495196
0.77534065000000 1.71199535000000  70.35294245999999 -535.38544292366805
1.00367941000000 1.63995078000000 116.46650615000000 -535.46915992947197
0.98013757000000 1.74549992000000  79.24313203000000 -535.45967243086898
1.13781655000000 1.82204812000000 107.25493794000000 -535.44960946211199
1.01960360000000 1.53907518000000  84.77713334000001 -535.44084088625095
0.89409203000000 1.72809412000000  94.01991968999999 -535.46765101498795
1.21776278000000 1.68243258000000  85.70381693000000 -535.43275026012896
0.93022659000000 1.60265526000000 123.90201089000000 -535.46218019946605
1.00375489000000 1.66793038000000  65.23109128000000 -535.42378958458596
1.23404957000000 1.66971227000000  84.96934483000000 -535.42795840084898
1.41977991000000 1.67015840000000 118.28790218000000 -535.39432830568899
0.79915684000000 1.72447450000000 102.57610345000001 -535.43672525669194
1.14979298000000 1.63673012000000 115.00021864999999 -535.44991672611104
0.96396346000000 1.78235415000000  89.47995926999999 -535.46938073301806
0.93274850000000 1.79190807000000  95.32895077000001 -535.47025824699597
0.97730783000000 1.98572440000000  89.58444090000000 -535.45308379721598
0.73062297000000 1.68965095000000  97.05175133000000 -535.38203068480595
1.09622617000000 1.67161247000000  68.85385931000000 -535.42650103186702
0.99450103000000 1.89374871000000  96.19896314000000 -535.46283695055104
1.19443721000000 1.76127599000000 107.93222335999999 -535.44287472226097
1.36590275000000 1.68642815000000  63.58400481000000 -535.37733029406797
1.06169368000000 1.52966182000000 113.13364464000000 -535.45337514463097
1.02884308000000 1.82221736000000  99.63289928000000 -535.46672266741996
1.19578899000000 1.68153495000000 108.21093779000000 -535.44481121619197
0.95501915000000 1.72259061000000  70.57155002000000 -535.44305249474201
1.27844880000000 1.70120896000000 135.98683292000001 -535.40212412954600
1.04836230000000 1.84057791000000  97.59854729000000 -535.46329711469696
0.96891078000000 1.80994539000000  94.36773884000000 -535.47006233092202
1.14184952000000 1.68518836000000  88.87784761000000 -535.45026714902099
1.27869078000000 1.46891889000000 102.78908333000000 -535.39618777279600
0.98262701000000 1.47756524000000  86.28147238000000 -535.42448078243604
1.28690700000000 1.85912549000000 102.06736653000000 -535.41837118434205
1.49164789000000 1.86071077000000 103.40661912000000 -535.37644163132893
1.14902386000000 1.58749219000000 103.34624282999999 -535.44890102165004
0.98440035000000 1.72040012000000  68.93763319000000 -535.43973204899601
0.96566596000000 1.41661072000000  94.03275087999999 -535.40827989984803
0.95220466000000 1.77876348000000  95.56424625000000 -535.47198024459101
1.11335351000000 1.67622802000000 113.47229716000000 -535.45783181936804
0.80778455000000 1.62978352000000 101.71408676000000 -535.44050893013605
1.40830703000000 1.73391682000000 105.55843985999999 -535.40077137826995
1.12376761000000 1.74738128000000 100.47810242000000 -535.45809492137596
0.97675960000000 1.77481323000000  83.06787627000000 -535.46430818932595
1.18294664000000 1.68045096000000  81.11644963000001 -535.43426792960804
1.10077293000000 1.74667313000000 102.15404195000001 -535.46186898681196
0.93210016000000 1.65533028000000  95.50959562000000 -535.47174060768702
0.89328390000000 1.63818691000000 119.15004544999999 -535.46340045462398
1.07685979000000 1.45548200000000 100.10406636000000 -535.42584511147095
1.01559335000000 1.75181774000000  94.26976962000001 -535.47088677257398
1.00442671000000 1.78885727000000  80.96649171000000 -535.46085865561201
1.08040481000000 1.56645734000000 101.25534473000000 -535.45680367905902
0.94331591000000 1.74282477000000  73.91911183000001 -535.45032278582403
0.99880366000000 1.74994094000000  82.77364967000000 -535.46350997009904
1.12465577000000 1.66641438000000  85.48176377999999 -535.44893605971197
1.06882203000000 1.87422898000000 103.06199832000000 -535.45712628390004
0.96306363000000 1.63522434000000 116.36872405000000 -535.47052013159396
0.95985852000000 1.66848967000000  68.88999560000001 -535.43348479090901
1.19900271000000 1.62939170000000 108.71419262000001 -535.44268424358199
0.97344639000000 1.86080277000000 109.64742493999999 -535.46316510112501
1.08156903000000 1.84391462000000 106.94811811000000 -535.45689707170300
0.91506764000000 1.56525999000000  77.16091082000000 -535.43066541955204
0.89851713000000 1.80515746000000  92.47239114000000 -535.46465621729692
1.22395162000000 1.69337075000000  85.65607639000000 -535.43196529174998
0.94748972000000 1.65229383000000  75.87297572000000 -535.44705523928201
0.99094119000000 1.83426412000000  69.23326295000000 -535.44410525369995
1.05578365000000 1.47685906000000 105.89981529000001 -535.44005649683197
0.90169332000000 1.64140391000000  65.53156715000000 -535.41290554435102
1.42138535000000 1.67236174000000 115.05970682000000 -535.39602590956497
0.95362000000000 1.79925711000000 101.48082021000000 -535.47120068519803
1.01306802000000 1.80429803000000  87.63664592000001 -535.46562309024000
0.77769820000000 1.56516962000000 104.88278406000001 -535.41678236904295
0.82089090000000 1.69854155000000  76.36159848000000 -535.42410428385597
1.00414235000000 1.66169326000000 143.42495352000000 -535.43721285379900
1.15392764000000 1.69033473000000 102.88277970000000 -535.45373582957916
1.17849812000000 1.71754434000000  98.44986717000000 -535.44856419083203
0.74107641000000 1.65509924000000  87.76418212000000 -535.38402550884405
1.38356186000000 1.72610810000000 109.77612943000000 -535.40482758321298
1.46006368000000 1.70224478000000 124.62325629999999 -535.38099195441396
0.79975899000000 1.69021714000000 105.64599988000001 -535.43768171898716
1.00850959000000 1.82274474000000 110.11996590000000 -535.46512284155597
0.71757648000000 1.67260110000000  76.62399793000000 -535.34221986107696
0.94566425000000 1.65551765000000 140.11816585000000 -535.44378385708603
1.08206470000000 1.85318995000000  99.79390081000000 -535.45785350957601
1.10142073000000 1.73009324000000 101.85872132999999 -535.46234268962303
0.97737667000000 1.95166281000000 120.65286216000000 -535.44443532232299
0.95403153000000 1.92949462000000  55.24656952000000 -535.41419209514197
1.18190166000000 1.64076197000000  95.39861664999999 -535.44480268065104
1.02938005000000 1.71788838000000  86.53822379000000 -535.46496121764301
1.14033294000000 1.66520446000000 101.89092581000000 -535.45582530583692
1.05236135000000 1.75814232000000  86.17100846000000 -535.46230241990997
0.96936874000000 1.62720211000000  68.96945642000000 -535.42703784087996
0.95628374000000 1.81592480000000 103.64836344000000 -535.46961875980799
0.93293781000000 1.62432382000000 142.18805067000000 -535.44040935045700
1.02088894000000 1.50572315000000 104.07324513000000 -535.45194369719002
0.77489912000000 1.70418800000000  70.94949305000000 -535.38587761275596
0.93449355000000 1.46380161000000  86.77882305000000 -535.41853205961002
1.01510808000000 1.60880598000000  72.26333984999999 -535.43134226770599
0.96107903000000 1.70061761000000 114.45650623000000 -535.47168770909502
0.77372017000000 1.70917524000000  93.73374317000000 -535.41830887532205
1.07665967000000 1.77185835000000 115.48429812000001 -535.45843270467901
1.10485749000000 1.68188016000000  61.12010708000000 -535.40824508202195
1.40533011000000 1.62996044000000 109.65727792000000 -535.40047838555301
1.06214575000000 1.77147436000000 102.93725190000001 -535.46613386657691
0.97122715000000 1.81088016000000 100.54276016999999 -535.47056940162201
0.98735615000000 1.50948718000000  99.00897094000000 -535.45232323066296
1.17248089000000 1.76736780000000 103.61478993000000 -535.44803731434797
0.92896562000000 1.57318896000000  70.24715230000000 -535.41530550780601
0.98812359000000 1.51240338000000 104.70748755000000 -535.45612525959802
1.00767092000000 1.86090834000000 119.78527544000001 -535.45408736465004
1.02052929000000 1.69790609000000 136.67272933999999 -535.44490788485098
0.89664889000000 1.66543639000000  95.64742402000000 -535.46828225806303
1.12693773000000 1.58998558000000  99.40819336000000 -535.45197677486397
0.96089384000000 1.70206730000000 105.59650635000000 -535.47527821691199
0.96439159000000 2.00112186000000 103.81295115000000 -535.45022591203292
0.84503874000000 2.00819259000000 105.54455722000000 -535.42971408297001
1.48811548000000 1.65600242000000  97.82867478999999 -535.38498188886194
1.05437433000000 1.68345283000000  97.92948642000000 -535.46877167835396
0.82280969000000 1.65619762000000  74.33948487000001 -535.41636905893301
1.15173867000000 1.69662375000000  95.80542968000000 -535.45291776421800
0.86647903000000 1.75196283000000 121.34589157000001 -535.45222935994900
0.67647433000000 1.72901471000000  89.67095834000000 -535.30534741576400
1.04948938000000 1.66039188000000  99.32839011000000 -535.46911940645396
0.99317752000000 1.75027150000000 102.35189200000001 -535.47350668121896
1.00119359000000 1.79931818000000  76.84216220000000 -535.45581258494497
1.19175136000000 1.81225504000000 100.67322145000000 -535.44187614594091
1.00298692000000 1.62902926000000  70.44903954000000 -535.43121416355291
1.37096420000000 1.63558685000000 101.60108722000000 -535.40783512022699
0.96765006000000 1.75907907000000  83.18545014000000 -535.46466729323902
1.20469328000000 1.65254848000000 101.77145580000000 -535.44301492584702
0.99616055000000 1.67493478000000 128.18932203000000 -535.45870510780003
1.08201793000000 1.69466226000000 115.43451277000000 -535.46131818920901
1.05278139000000 1.68511956000000 125.74300122000000 -535.45615187190401
0.92631226000000 1.82531662000000 115.68562980000000 -535.46095861441097
1.28968322000000 1.62338241000000 107.57399429000000 -535.42396891912097
0.74303788000000 1.72035121000000  79.56821889000000 -535.37768237158696
0.97979674000000 1.82674875000000  93.55479505000000 -535.46857586768897
1.45903045000000 1.69262610000000 115.03846865000000 -535.38868386245895
1.33294974000000 1.69185746000000 132.82749677999999 -535.39596154697301
0.86379107000000 1.72467885000000 110.87896809000000 -535.46088194860897
0.95998075000000 1.75107782000000  93.54594833000000 -535.47255207677301
1.13651214000000 1.79591964000000 109.83660251000001 -535.45070225206302
1.31045316000000 1.92681482000000 104.75632010000000 -535.40609816209201
1.11725315000000 1.88480472000000 103.73738208000000 -535.44866626205692
1.09133052000000 1.67695603000000  70.59681878000001 -535.43142824952895
0.96999938000000 1.61770377000000 110.50484839000001 -535.47243703051004
0.97314078000000 1.66339734000000 106.48890049000001 -535.47506721658999
0.99058081000000 1.47067464000000  91.80972079999999 -535.43084137694098
1.01485965000000 1.63150709000000  81.36078366000000 -535.45358803571503
0.79358623000000 1.88904087000000 100.43067575000001 -535.42086572998801
1.25019514000000 1.70225374000000 106.54728157000000 -535.43402706622101
1.00095782000000 1.61234273000000 124.66189469000000 -535.46156872691301
0.86314758000000 1.74952374000000 116.56741312000000 -535.45571515685594
0.88879255000000 1.63113975000000 119.95771959000000 -535.46184098214098
1.19891271000000 1.69712345000000 126.17720509000000 -535.43081737867897
0.89168118000000 1.71053358000000  91.96260334000000 -535.46615753253195
0.97609062000000 1.58885122000000  86.63189192000000 -535.45687136731692
1.14741503000000 1.62553838000000 114.59388925000000 -535.45011807760397
0.96992462000000 1.97087514000000 125.49070465000000 -535.43714883987502
1.26238661000000 1.70803190000000 113.72008903000000 -535.42844362160702
0.86992111000000 1.74984500000000 117.18788121999999 -535.45695768333599
0.98882038000000 1.70637129000000  74.76435515999999 -535.45061238526716
1.00025679000000 1.54451838000000 134.85033995000001 -535.44425464385404
0.99529615000000 1.88549712000000 121.94304794999999 -535.44998687729196
0.97101797000000 1.72364346000000  97.79028674000000 -535.47464811536997
1.07909723000000 1.90894639000000 103.65650205999999 -535.45205852507695
1.00403125000000 1.56651777000000 116.96487190000001 -535.46355958236200
0.98848447000000 1.72370167000000 108.08409952000000 -535.47357135135201
1.02907604000000 1.71508542000000 104.24649823999999 -535.47193051605700
1.14933644000000 1.69255583000000 132.26391409999999 -535.43281693000301
1.45078284000000 1.63160213000000  95.79509242000000 -535.38973163013895
0.78045051000000 1.92967857000000 104.42294047999999 -535.40677200739196
0.95198128000000 1.78594896000000 109.34719026000000 -535.46982742755597
0.88434172000000 1.67399781000000  97.05993121000000 -535.46702330281596
0.92086934000000 1.80132438000000 120.14948398000000 -535.45876585522205
0.96084665000000 1.64727343000000 104.75343795000001 -535.47485282178900
1.13151873000000 1.68572759000000 124.57694380000000 -535.44548039016900
0.87127523000000 1.83790434000000 110.06466500000001 -535.45468279532702
1.08818948000000 1.66514557000000  85.40870767000000 -535.45447831234492
0.98754520000000 1.84822514000000  92.10035139000000 -535.46636105003699
1.10956616000000 1.55015395000000 101.44633742000001 -535.44951099247203
0.68509041000000 1.61953944000000  92.76641198000000 -535.31785528587693
1.11901154000000 1.54023627000000 104.36039973000000 -535.44695886410398
0.98200380000000 1.53388755000000 134.84359096000000 -535.44378835621796
0.85430119000000 1.80917607000000 113.93215521000000 -535.45029287517298
1.14379258000000 1.55767067000000  96.80340409999999 -535.44243691702195
0.78438550000000 1.70355859000000 125.67252497000000 -535.41498376742595
1.10368456000000 1.72467745000000  94.32207671000000 -535.46066566311697
1.26452488000000 1.70590914000000  87.64418067000000 -535.42576467650201
0.89547327000000 1.63877789000000 116.96663584000000 -535.46532388396201
1.01399488000000 1.77988908000000  77.91799695000000 -535.45670376003295
0.96513671000000 1.43368246000000 113.69065463000000 -535.43101804445405
0.98805854000000 1.54827099000000 112.62929486000000 -535.46369105280701
0.83677067000000 1.70403749000000  75.99339003000000 -535.43048274940202
0.95012498000000 1.90705700000000  94.71472181999999 -535.46170428915605
0.95195352000000 1.69098379000000 108.42905343000000 -535.47461824563095
1.00358453000000 1.95557797000000  92.80836248000000 -535.45589219591000
0.96293917000000 1.89666971000000  92.85441390000000 -535.46272077159904
1.15615289000000 1.73420624000000 110.81081111000000 -535.45029957445900
1.06672161000000 1.67078983000000  88.75145087999999 -535.46122775773097
0.98932039000000 1.92326387000000  84.38579910999999 -535.45672470739100
1.19192370000000 1.69731564000000  88.24460191999999 -535.44076468200399
1.05692302000000 1.69790408000000 100.09382263000001 -535.46905289877895
0.90492438000000 1.61669900000000 104.82630181000000 -535.46954386629500
1.35679518000000 1.71176894000000 121.30420936000000 -535.40337099531098
1.34352344000000 1.62260290000000 107.19249454000000 -535.41287768791801
1.07110142000000 1.63695590000000 118.43718120000000 -535.46056752671996
1.09037971000000 1.84466475000000 100.41610011000000 -535.45730958068998
1.40645664000000 1.79963558000000 106.10842459000000 -535.39738437290498
1.00270328000000 1.67536309000000 105.17065852000000 -535.47420155441296
0.84719853000000 1.60711337000000  88.66641162000001 -535.44520087512899
0.96925853000000 1.81604126000000 100.51513369000000 -535.47019207679500
1.09138392000000 1.68740519000000  59.37529604000000 -535.40527547690704
1.08880466000000 1.72010258000000  92.93271761000000 -535.46234492035205
0.99874898000000 1.56198973000000 100.59386780000000 -535.46445309080605
1.06514443000000 1.59320239000000 101.39628737000000 -535.46268332099498
1.11498040000000 1.70755446000000  59.38088520000000 -535.40617199845701
1.14435065000000 1.70018989000000  79.18991635000000 -535.43994239199696
1.09725080000000 1.78206979000000 105.85658382000000 -535.45984009008998
1.12669948000000 1.68253807000000 116.58268992000001 -535.45353093791698
0.85369340000000 1.69281720000000 103.20674434999999 -535.46076679572900
0.79025756000000 1.64678439000000 100.36872655000001 -535.43114312799696
1.09018555000000 1.81349089000000 103.49513896000001 -535.45932532431402
0.82683537000000 2.00736085000000  98.71897468000000 -535.42476108767903
0.85678106000000 1.76331866000000  96.37061941000000 -535.45876270646204
1.16580691000000 1.56974835000000 109.56321341000000 -535.44354619256501
0.97945654000000 1.87164602000000 127.95659292000001 -535.44505018223401
0.91996157000000 1.62946908000000  74.96076321000000 -535.43951405257803
1.14554771000000 1.71055205000000 105.26061030000000 -535.45487459731999
1.13402707000000 1.75174372000000  99.15658071999999 -535.45608332371899
0.93787172000000 1.89713862000000 127.56592198000000 -535.44199260771597
0.93193823000000 1.58989430000000 134.33011091000000 -535.44997060814796
0.84012321000000 1.69493831000000  70.79866413000001 -535.41956728569517
1.46218761000000 1.73965755000000 106.66705650000000 -535.38979964628493
0.96775296000000 1.87283496000000  73.08168677000000 -535.44935710082302
1.19998437000000 1.78683856000000 103.86080615000000 -535.44146785419400
1.27731881000000 1.81255139000000 103.28267682000001 -535.42392184315202
0.91799108000000 1.46724676000000  91.26485466000000 -535.42678599268004
0.91101461000000 1.90402172000000  94.31013260000000 -535.45883716841900
1.21527469000000 1.67178989000000  68.39506152000000 -535.40792747738499
0.84896832000000 1.63986810000000  85.09082952999999 -535.44482765409202
0.95017931000000 1.53879238000000 113.48188860000000 -535.46233766280398
0.97294415000000 1.71569905000000  77.51474555999999 -535.45615990729402
0.98672344000000 1.79293558000000  81.82593248000001 -535.46242921000703
1.05950204000000 1.62794190000000 121.23229519000000 -535.45957551995900
0.87576480000000 1.62585487000000 111.70022849000000 -535.46387338282898
0.86643287000000 1.78237058000000  93.34949494999999 -535.45953618565795
0.90919675000000 1.74281503000000 101.27032226999999 -535.47119218487603
0.98369313000000 1.55340573000000 115.00940344999999 -535.46383803813603
0.95180224000000 1.64853650000000 138.89841566999999 -535.44579939953803
0.89672567000000 1.83498700000000 107.19047698000000 -535.46157559483299
0.98083238000000 1.93739409000000  84.66755784999999 -535.45587001010995
1.20639749000000 1.52523329000000 100.70303490000001 -535.42601013103797
1.12431230000000 1.88391117000000 101.47522845000000 -535.44815131438702
1.01873845000000 1.95155775000000 108.26068551000000 -535.45201538998492
1.04774694000000 1.63223604000000  98.61468268000000 -535.46756493524197
0.95831321000000 1.80272992000000  90.76918397000000 -535.46906679975496
0.98951387000000 1.64823057000000 102.17952739000000 -535.47417903860298
0.95306469000000 1.79529921000000  86.34278107000000 -535.46650323627898
1.12450646000000 1.70263636000000 100.58450371000001 -535.45892485853005
0.97135025000000 1.57508404000000  91.17372644000000 -535.46029428738404
1.34628252000000 1.74381461000000  96.15311825000001 -535.41288387005204
0.91715728000000 1.70105476000000 101.30268768000001 -535.47317905281102
0.86290229000000 1.74383293000000 110.93011570000000 -535.45962460708404
0.84909840000000 1.72752176000000  69.44410714999999 -535.42244031289204
0.96415448000000 1.78971079000000  64.98235355000000 -535.43462786406201
0.99359349000000 1.85215569000000  99.95319666000000 -535.46663227898716
0.97108585000000 2.10150330000000  97.01456021000000 -535.44035413834195
1.00700169000000 1.76763923000000  90.61341241000000 -535.46928036920099
0.91611172000000 1.75929767000000 115.52116472000000 -535.46561558606493
1.05264730000000 1.81744839000000  98.69007563000000 -535.46460262079404
0.82295849000000 1.66531332000000  74.41999677000000 -535.41777287487002
0.95842506000000 1.90798163000000 103.10704186000000 -535.46096461531295
1.44826935000000 1.68597677000000 119.47181012000000 -535.38793927604797
1.11991535000000 1.63301569000000  95.20788473000000 -535.45548822170895
0.81910943000000 1.62533186000000 117.33817041000000 -535.44232061080697
1.16007634000000 1.70300443000000 126.80012540000000 -535.43735963312395
0.75506333000000 1.71526661000000  86.16880887000001 -535.39731891758890
0.99214402000000 1.64995457000000 143.39594500999999 -535.43823869914092
1.13352233000000 1.89413355000000 102.92592599000000 -535.44521352953200
0.95596486000000 1.54089951000000  71.13909090999999 -535.41004823108506
0.91819825000000 1.51818924000000  88.00846498000000 -535.43997223898396
0.79534376000000 1.70148348000000 112.99278357000000 -535.43236571584998
0.98241393000000 1.80377314000000  74.81220682999999 -535.45348219706602
1.27090985000000 1.66110103000000 116.47177487000000 -535.42543250909796
0.94169217000000 1.59213473000000 133.38519198000000 -535.45173800156101
0.90073321000000 1.93728357000000 102.43606668000000 -535.45312204722597
1.05986951000000 1.83381499000000  97.71984274000000 -535.46247873529796
1.36625325000000 1.56161123000000  99.08134861000001 -535.40001182661604
0.83676364000000 1.79136488000000  97.91728508999999 -535.45068236386805
0.96032517000000 1.70460245000000  59.49543426000000 -535.41072893545504
1.19394921000000 1.74901752000000 111.21839742000000 -535.44213543560204
1.32538841000000 1.59659062000000 103.96022280000000 -535.41448463550296
1.02543039000000 1.63974540000000 127.25566865000000 -535.45769261412602
0.91441287000000 2.01124804000000 107.24810585000000 -535.44439226769691
1.04265142000000 1.68468263000000 113.09165651000001 -535.46801440612796
0.97700095000000 1.71210167000000  72.01472201000000 -535.44577827560795
1.28532593000000 1.69821609000000 126.85272460000000 -535.41264115151000
1.21478674000000 1.83481542000000 102.32030820000000 -535.43531817136204
0.90666212000000 1.68964074000000 118.62226855999999 -535.46553535349096
0.93983532000000 1.68537927000000 143.89140194999999 -535.43689252689205
1.30063979000000 1.73926870000000  96.68982507000000 -535.42271440274317
1.29474455000000 1.68906543000000  87.68594537000000 -535.41897140894901
1.42738377000000 1.69678460000000 116.09229184000000 -535.39392804269198
1.03103162000000 1.66668264000000  89.53679357000000 -535.46573022023495
0.97462432000000 1.78046716000000  68.30328919000000 -535.44175533573900
1.14030710000000 1.63157251000000  99.17026663000000 -535.45361836037205
1.15878067000000 1.95175676000000 103.38717139000001 -535.43448215311003
0.99404410000000 1.66106222000000  64.32989696000000 -535.42011005376696
1.01350961000000 1.78461679000000 109.05513479000000 -535.46838037712303
0.90961170000000 1.73093073000000  82.98943894000000 -535.46068329128491
1.19183063000000 1.74331664000000 106.84732962000000 -535.44463929507299
0.86303660000000 1.81070473000000  94.73736298999999 -535.45737269287997
1.23376848000000 1.57581552000000 108.44174486000000 -535.43103032805504
1.02329777000000 1.80484351000000  88.31096574000000 -535.46523935337200
0.95226615000000 1.56359687000000 117.98897078000000 -535.46409029897495
0.88633591000000 1.68611939000000  72.15954600000001 -535.43523838798205
0.98762586000000 1.62726316000000 120.98313532000000 -535.46626696128806
0.95775728000000 1.84146063000000 102.82770558999999 -535.46764317334396
0.94408794000000 1.87973969000000 116.12160149000000 -535.45617602945595
0.92474176000000 1.60923923000000 118.86375629000000 -535.46630324271598
1.12380276000000 1.61928432000000 105.56774804000000 -535.45661353233004
0.96251256000000 1.52543411000000  98.34835566000000 -535.45655229027500
1.06557890000000 1.96119109000000 101.36895183999999 -535.44885483785504
1.09178301000000 1.85931616000000 104.22199086000001 -535.45498238805806
1.14108870000000 1.61777182000000 100.10761302000000 -535.45268727267705
0.89865684000000 1.68906537000000  69.26855045000001 -535.43085374871691
0.84312214000000 1.62837974000000  98.61945466000000 -535.45444141635517
0.93886778000000 1.72457423000000  89.47286615000000 -535.46978185370801
0.81214457000000 1.56257177000000 103.95064216000000 -535.43625374797205
0.91190468000000 1.78792377000000 108.01537259000000 -535.46741455846097
1.04539243000000 1.59873201000000 109.50879861000000 -535.46602618610200
1.37067588000000 1.70753275000000  94.26923325999999 -535.40761953921503
0.92537237000000 1.72808125000000  98.36802199000000 -535.47307925890198
1.20264728000000 1.62789452000000 105.89139136999999 -535.44229350155695
1.05117906000000 1.63344445000000 124.24202181000000 -535.45797255528316
0.91402242000000 1.67850760000000 118.91332403000000 -535.46642321843206
0.91048777000000 1.53744148000000  86.69942275000000 -535.44243649831799
1.13232874000000 1.75549313000000  96.47373082000000 -535.45584699035101
0.98434977000000 1.79568914000000 112.66291635000000 -535.46708840922702
0.95111652000000 1.71685547000000  92.95074691000001 -535.47262262240201
1.04471725000000 1.79813098000000 107.35917145000001 -535.46522617967798
1.22477651000000 1.71016980000000 118.51347516000000 -535.43271921551195
1.08162213000000 1.76027700000000 114.55265113000000 -535.45916600662895
1.08283661000000 1.86155548000000  98.29390375000000 -535.45710920824501
0.90281423000000 1.70895065000000  59.08334929000000 -535.40314496430301
1.04175802000000 1.66228651000000  67.43221386000000 -535.42711233979901
0.96864354000000 1.71446126000000 130.24411017000000 -535.45561922736397
0.93785896000000 2.02366564000000 102.89164506000000 -535.44693504582403
1.13427741000000 1.77088637000000  98.92844655000000 -535.45519907960602
1.11197309000000 1.69451855000000  70.54091098000001 -535.43044716772897
0.98327293000000 1.64927645000000  93.87050705999999 -535.47117050250995
1.10588396000000 1.66012286000000 102.75534720000000 -535.46166236385000
0.93211956000000 1.84589655000000  85.11135941000001 -535.46190204322500
0.94041230000000 1.68982108000000 131.10242088000001 -535.45514848675100
1.47684542000000 1.70078787000000 116.98121451999999 -535.38406936689205
0.92591654000000 1.57057244000000 118.79098740000001 -535.46324320399697
0.86872037000000 1.50070579000000 105.20046684000000 -535.44360650050896
1.06171537000000 1.65116725000000 137.26629573000000 -535.44061433851095
0.92257576000000 1.85591869000000  82.72032449000000 -535.45855805345695
1.00083759000000 1.78747398000000  82.68736070999999 -535.46288707005999
1.00177332000000 1.61483162000000 123.32517874000000 -535.46291481943001
0.98625758000000 1.75296124000000 114.04637101000000 -535.46916504622595
0.94354507000000 1.89358259000000 112.89006702000000 -535.45711810518299
0.97200685000000 1.85559290000000  92.36863354000000 -535.46618433709000
1.02052323000000 1.60476730000000  72.83409541000000 -535.43160659901605
0.87468056000000 2.06308866000000 105.35126217000000 -535.43195396334602
0.96328436000000 1.58566365000000 134.77097685999999 -535.44986747466203
0.87649527000000 1.76959810000000 104.70338844000000 -535.46369821727797
1.08086211000000 1.74631306000000  98.67562973000000 -535.46480307113291
1.13779164000000 1.71157978000000 142.18809282999999 -535.41934902846003
1.14690759000000 1.67297593000000  95.73112395000000 -535.45324491000395
0.85264197000000 1.77711355000000 113.76817602000000 -535.45265202925896
0.83461964000000 1.53248026000000  94.71550348000000 -535.43389001612093
0.89364505000000 1.79500768000000  90.96776570000000 -535.46372623293405
1.06943874000000 1.42326207000000 101.67949568000000 -535.41320411443701
1.01407004000000 1.49610538000000  91.76459362000000 -535.43896036460899
0.87512818000000 1.72563298000000 123.08250515000000 -535.45431164498302
1.05749363000000 1.61609744000000 118.92051925000000 -535.46118310350300
1.06456286000000 1.69189689000000 135.78012745999999 -535.44153213007496
0.87910898000000 1.68613527000000 118.39153601000000 -535.46114972210603
1.15372936000000 1.57802003000000  98.10337263000000 -535.44486630119798
0.91549377000000 1.65800809000000 136.88196209000000 -535.44647970824701
1.21900819000000 1.67151060000000  86.92241624000000 -535.43306897684897
0.80498966000000 1.69860042000000  75.22484872000000 -535.41389801019102
1.18656920000000 1.76335386000000  96.23507351000001 -535.44537339315400
0.95639631000000 1.68987233000000  95.93719148000000 -535.47406783647205
0.83683463000000 1.76031689000000 114.55877853000000 -535.44793417738902
0.97778958000000 1.94210871000000  57.08657007000000 -535.41942468688501
0.97611193000000 1.82369116000000  76.95897839000000 -535.45615031209002
1.05608983000000 1.85691250000000  94.20007652000000 -535.46072649215603
0.71533949000000 1.68631332000000  78.20150047000000 -535.34384372335796
1.11756131000000 1.74048992000000 102.34115315000000 -535.45934746755495
0.98665265000000 1.67782478000000 117.79669767000000 -535.46935849242095
0.89055185000000 1.94627431000000 105.08266352000000 -535.44942396033002
1.14760776000000 1.76249330000000 111.34940228000001 -535.45015075268304
0.90432207000000 1.51933231000000 116.37920160000000 -535.45424657694696
1.26392357000000 1.86272336000000 100.30754994000000 -535.42314989879503
0.91467546000000 1.70324627000000 119.34636668000000 -535.46544052883496
0.85502682000000 1.71675022000000  74.04086761000001 -535.43382712095001
0.94794212000000 1.74084787000000 127.22533602999999 -535.45758258433204
1.06300211000000 1.74720605000000 115.60002255000001 -535.46173505480601
0.94639107000000 1.86659692000000 118.56108030000000 -535.45555034531606
0.92883770000000 1.89405937000000  97.16415144000000 -535.46186269081795
0.77970497000000 1.61478844000000 103.73208484000000 -535.42327939727795
0.99896217000000 1.59578419000000 124.87386825999999 -535.46054110886803
0.85576882000000 1.49814751000000 112.16624032000000 -535.44039192343701
1.30393001000000 1.68484463000000 129.02796832000001 -535.40669174865002
0.90932852000000 1.72963148000000  73.72252637000000 -535.44599892271901
0.98321250000000 1.91752299000000 116.64006211000000 -535.45191226658892
0.95219717000000 1.75061435000000  99.83669123000000 -535.47399145614702
1.18026992000000 1.72588178000000  91.86271945999999 -535.44581943476999
0.96527864000000 1.58896469000000 139.71930904000001 -535.44341663667694
0.96316227000000 1.91528675000000 108.76085246000000 -535.45784637894599
1.21956179000000 1.66143310000000 111.57814030000000 -535.43865705024200
1.08040611000000 1.72925138000000  89.31155013999999 -535.46134883723596
1.10114160000000 1.66777644000000  88.58016661000001 -535.45596942589805
0.78055639000000 1.74583998000000 111.09944965000000 -535.42182169264595
0.87347024000000 1.99136611000000 101.47486691000000 -535.44166020870796
1.03774359000000 1.70208103000000 111.15091682000001 -535.46925269357200
1.03597351000000 1.70471853000000  93.84705280000000 -535.46944933397197
1.15767149000000 1.50501712000000  99.64709870999999 -535.42946468225000
0.98428212000000 1.55306814000000  72.10199050000000 -535.41755717418005
0.93030134000000 1.62369747000000  73.41385077000000 -535.43588490670300
0.93121136000000 1.71445071000000 113.11963933000000 -535.47096904851117
1.37496155000000 1.68411448000000 110.71991303999999 -535.40713199455297
0.92282713000000 1.64051872000000 138.08324897000000 -535.44565703319597
1.14386315000000 1.65187582000000  93.57232721000000 -535.45163776465495
1.10163119000000 1.80553301000000 110.35354336000000 -535.45553243382994
0.95774332000000 1.73792412000000 100.76897627000000 -535.47464071972001
1.24943240000000 1.83697504000000 104.10672862000000 -535.42762440276795
1.14313481000000 1.70603484000000  72.11950003000000 -535.42966231469904
1.25411086000000 1.64715471000000 111.38247699999999 -535.43135111433696
1.01824842000000 1.75973830000000  99.19292265999999 -535.47148711027501
1.03562659000000 1.60182289000000  93.90251100000000 -535.46313694783100
1.36767871000000 1.56312963000000 104.09011416000000 -535.40182513459297
1.18977631000000 1.84289182000000 107.36877954000001 -535.43804510484892
1.00464491000000 1.49400314000000 115.30574566000000 -535.45031919301596
1.35012159000000 1.67910929000000 122.47753702000000 -535.40446809711500
0.94285033000000 1.65849844000000 133.21189498999999 -535.45331742211295
1.05232276000000 1.41075630000000 111.04758158000000 -535.41361288833798
0.95301278000000 1.77915316000000 116.36419402999999 -535.46587604134004
0.97150783000000 1.55249134000000 100.90096538000000 -535.46392047845802
0.95955816000000 2.07221474000000 105.28346741000000 -535.44117145031203
0.91033771000000 1.72080154000000 104.52105342000000 -535.47191362653200
1.17563996000000 1.69729926000000 136.41919741999999 -535.42190833186805
0.79052813000000 1.94146937000000  99.70145863000000 -535.41324535588399
1.33091416000000 1.70021853000000  71.76488801000001 -535.39430640229796
0.99653796000000 1.79492483000000 115.77858141999999 -535.46442859528304
0.78996241000000 1.77474107000000 105.26426992000000 -535.42817576585901
1.21527498000000 1.81652150000000 107.07933590000000 -535.43530356693805
1.03268964000000 1.69361612000000  83.32078321000000 -535.46038569968505
1.16356056000000 1.69149322000000 113.18464742000000 -535.44888431644597
1.02299114000000 1.73076510000000  73.93318300000000 -535.44893153901705
1.12991729000000 1.57942938000000 102.08414506000000 -535.45101197309805
1.04762733000000 1.72503358000000 126.99752300000000 -535.45377217435100
0.96492083000000 1.73376559000000  91.53284771000000 -535.47190065980396
0.75038368000000 1.67262655000000 115.29366263999999 -535.39907802262303
0.95967195000000 1.81615295000000 121.21537313000000 -535.45840627334701
0.99070687000000 1.81459173000000  76.40623653999999 -535.45537418124400
0.96483168000000 1.68860969000000 107.20725858000000 -535.47511770363701
1.01971691000000 1.82033620000000  92.18269275999999 -535.46650772711098
0.98716689000000 1.53480703000000  74.47548060000000 -535.41827500998397
1.06910143000000 1.69304258000000 102.94160171000000 -535.46764141149595
0.86089739000000 1.69539218000000  69.56619811000000 -535.42349701882699
0.91826030000000 1.67280547000000 114.24544666000000 -535.47018697588396
0.97098424000000 1.89475922000000 115.07613945999999 -535.45592119064702
0.91629203000000 2.01116891000000  92.59385652000000 -535.44787967061404
0.87846358000000 1.73078748000000 105.53624253000000 -535.46601343431996
1.00090993000000 1.63071103000000 100.85990891000000 -535.47237217901397
1.02410682000000 1.71772366000000  93.25129842000000 -535.47029982260995
0.94641058000000 1.81675713000000  63.11464969000000 -535.43040310589004
1.03442097000000 1.64844175000000 112.65547237000000 -535.46890302693998
1.07536080000000 1.73030936000000 103.48471172000001 -535.46611669570200
0.97660438000000 1.56966830000000  78.55692560000000 -535.43837971277401
0.96281612000000 1.73415758000000 104.61468710000000 -535.47456189088098
0.99339396000000 1.70367565000000 124.56654274000000 -535.46209593106300
0.99432438000000 1.70621792000000 108.25211097000000 -535.47376653057199
1.06606886000000 1.78447573000000 102.69305568999999 -535.46488953175003
0.95608335000000 1.44043775000000  82.83922256000000 -535.39894199844696
0.98381818000000 1.78306458000000 108.03837294000000 -535.47052363185799
0.89651812000000 1.69353257000000  77.38401634000000 -535.44863507518198
1.20421541000000 1.66538317000000  91.22969662000000 -535.43928732486995
1.13012924000000 1.71538538000000  86.15367829000000 -535.45084701743701
1.03497341000000 1.64220561000000 105.54880210000000 -535.47060212324891
0.93881673000000 1.56666818000000 112.33042964000001 -535.46659065208098
0.71527766000000 1.69669415000000  98.05593901000000 -535.36512889119001
1.07854593000000 1.70224887000000 119.36727279000000 -535.45858825017604
0.97820971000000 1.65216536000000 107.98330228000000 -535.47442858217596
0.94912589000000 1.56918108000000 109.74610520000000 -535.46785423426400
1.43883438000000 1.66935299000000 111.37044605000000 -535.39439559713605
0.98858299000000 1.73572036000000 101.59840756000000 -535.47431209961803
1.05266434000000 1.61422242000000 108.06087173000000 -535.46669368870198
1.08115550000000 1.82256000000000 102.84119637000001 -535.46007765962702
0.68644959000000 1.70734472000000  79.69946105000000 -535.30867939543202
1.18914644000000 1.75808944000000  95.66746596000000 -535.44492874652201
0.97521815000000 1.44396535000000  98.26427579000000 -535.42791965296601
0.80694414000000 1.70732655000000 111.50524605000000 -535.43932422380897
0.99255251000000 1.44363443000000  88.95064302999999 -535.41361062492399
0.99152322000000 1.73192022000000  83.58609328000000 -535.46459312917602
0.98094529000000 1.60659845000000 119.55544387000000 -535.46669810154299
1.14696415000000 1.52767965000000  97.27391720999999 -535.43572312597917
0.87459062000000 1.64001929000000 126.73021036999999 -535.45279716985203
0.97090900000000 1.56908280000000  75.70909093000000 -535.43162202882490
1.21404792000000 1.65870999000000  89.40555582000000 -535.43549051760203
1.06157966000000 1.58653248000000  90.27188219000000 -535.45453196070605
0.95804699000000 1.43430685000000  74.72515253000000 -535.37179237440205
1.34750013000000 1.63755573000000 108.87173769000000 -535.41253355930803
0.95515685000000 1.86118987000000  91.86372376000000 -535.46543751202603
0.80253363000000 1.73904090000000 113.15836643999999 -535.43451871266404
1.00254234000000 1.64408587000000 107.02606256999999 -535.47324675317395
0.88142927000000 1.98495039000000 107.28929246000000 -535.44199032391600
0.98464747000000 1.89477397000000 117.38488509000000 -535.45375957598299
1.21668275000000 1.65372632000000  88.24989474000000 -535.43358518386594
0.86310978000000 1.83872052000000 101.59510212000001 -535.45548831133101
0.94214417000000 1.73778784000000  97.83217153000000 -535.47380863399496
1.14619977000000 1.66054678000000  80.47790719000000 -535.43846497084405
0.98600623000000 1.73256490000000  70.76947939000000 -535.44455685924004
0.97033735000000 1.68397336000000 119.64602671999999 -535.46819030387405
0.85831121000000 1.89494752000000 104.20698616999999 -535.44780945127195
1.47692154000000 1.53720344000000 100.19057012000000 -535.37547431416101
0.73070654000000 1.73212020000000  85.56365884000000 -535.37353065158402
1.00296952000000 1.70809469000000  80.81594468999999 -535.45994255464200
0.93020458000000 1.71759471000000 113.13031724000000 -535.47076913718001
1.44160826000000 1.92508403000000 102.55994809000001 -535.38002618182395
0.96478624000000 1.93886357000000  93.00533362000000 -535.45861504548600
0.84743824000000 1.57268646000000 106.20928462000001 -535.45235462695916
1.20045485000000 1.68337291000000 141.98304075999999 -535.40899347801496
0.87830273000000 1.80107747000000 114.46995367000000 -535.45695992859601
0.74266235000000 1.73034435000000 111.08218974000000 -535.39210970835995
0.71850033000000 1.71317710000000  97.38546085999999 -535.36849422770604
1.32748781000000 1.74200503000000  97.88032280000000 -535.41723009449902
1.02799607000000 1.70813411000000 145.81736759000000 -535.42947658525600
0.79440832000000 1.81321234000000 105.76492412000000 -535.42762973255117
1.02909553000000 1.79922858000000  93.04906530000000 -535.46726850591483
0.89473482000000 1.84569350000000 100.41136530000000 -535.46203495105101
1.01370048000000 1.76277437000000 112.07659341000000 -535.46824978200596
0.95628190000000 1.70455338000000  85.39185845000000 -535.46631716532397
0.97896014000000 1.54127146000000 120.87589430000000 -535.45881637326102
0.87549386000000 1.82109284000000 109.87611022999999 -535.45740269001305
0.94367471000000 1.68276737000000 148.17363817000000 -535.43047403397100
1.09464366000000 1.71654922000000  96.53603776999999 -535.46293441385205
0.90405928000000 1.51982564000000 104.82340985000000 -535.45498921442299
0.67862685000000 1.57393936000000  96.67448047000001 -535.30564049077395
1.05889124000000 1.77597916000000  93.30870754999999 -535.46528529757995
0.93994990000000 1.76751394000000 115.42814738000000 -535.46697850433804
0.98803951000000 1.51213934000000 145.11400351000000 -535.42651699027397
0.96351617000000 1.49009461000000  86.69012879000000 -535.43041861446397
1.08062804000000 1.69894510000000 146.25674434999999 -535.42266467700892
0.69156221000000 1.47498474000000 102.98835072000000 -535.30610905517403
1.16768957000000 1.63135053000000  98.71253331000000 -535.44835598646091
1.01784447000000 1.88346318000000 100.45602409000000 -535.46216343790491
1.12310459000000 1.91016068000000 104.25744318000000 -535.44494109595405
1.06767501000000 1.66225028000000  94.17837917000000 -535.46473067479496
1.06808742000000 1.64611720000000 129.25726275000000 -535.45043765805599
0.98710567000000 1.53835967000000 119.35584444000000 -535.45903179470997
0.93656839000000 1.91411666000000  87.06064730000000 -535.45818415207498
1.06642397000000 1.53943137000000 105.74761789999999 -535.45514919209802
0.78226842000000 1.69791596000000 110.89129180000000 -535.42534745198896
0.98365771000000 1.71148791000000  81.83315048999999 -535.46219195878098
0.90647210000000 1.67214963000000  94.02474986999999 -535.46903109010896
1.15900064000000 1.44480342000000 104.09864460999999 -535.41063591162197
1.03935190000000 1.62677337000000  93.14624139999999 -535.46490818121083
1.02401835000000 1.58101670000000 122.79417581000000 -535.45929954813198
1.08201512000000 1.60259385000000 109.45750537000001 -535.46153308370492
0.95880074000000 1.51267584000000 108.90390257000000 -535.45755940015897
0.82007206000000 1.91878202000000  99.23324547000000 -535.43190111221998
0.96190142000000 1.84247461000000  75.79048318000000 -535.45398885946099
1.06271761000000 1.95087894000000  98.66826687000000 -535.45088309168091
0.93915345000000 1.77176846000000  74.01582639999999 -535.45104705506901
1.04067540000000 1.81302321000000 101.27833532000000 -535.46611959712004
0.96204569000000 1.61683122000000 126.96685948000000 -535.46072694404199
1.28443291000000 1.77384739000000 104.26393964000000 -535.42475570308602
0.97218387000000 1.59016437000000  81.51462659000001 -535.44880730134901
1.02233682000000 1.75266599000000  93.73291654000001 -535.47011123730101
0.91210121000000 1.66325285000000 117.58188670000000 -535.46738967039198
1.11329380000000 1.70233816000000  91.99655364000000 -535.45787109266905
0.95630030000000 1.63046764000000  91.56507130999999 -535.46808573093699
1.01505788000000 1.95952542000000  93.50227457000000 -535.45482479713803
0.96702476000000 1.72059684000000 133.82013642999999 -535.45049929602703
1.03166076000000 1.63428023000000 106.21524798999999 -535.47051002352498
0.88260714000000 1.66025080000000  74.95458334000000 -535.43781685550596
1.03838091000000 1.98733881000000  96.41472996000000 -535.44983607899599
0.97205082000000 1.71040123000000  71.99195306999999 -535.44557927796302
1.11992688000000 1.44178696000000  98.96239128000001 -535.41219343098498
0.79488465000000 1.69291977000000  90.66760781000001 -535.42987921336601
0.98698173000000 1.74349356000000  89.64612839000000 -535.47021125868798
0.99064534000000 1.89959640000000  91.54271783000000 -535.46176428531692
1.16746744000000 1.60637441000000 107.40561384999999 -535.44749400670901
0.98439640000000 1.62989820000000  90.80745330000001 -535.46710521735201
0.97619240000000 1.76772715000000 109.81068395000000 -535.47096090424395
1.20119890000000 1.92260320000000 101.25921518000000 -535.43004577390695
0.95552891000000 1.63552324000000  95.05513293999999 -535.47120016372003
1.07772918000000 1.70525315000000  67.60114746000001 -535.42959921209695
1.20252222000000 1.78292282000000 103.18750032000000 -535.44133213777297
0.90884263000000 1.65508531000000 121.52268285000000 -535.46381426261291
0.98938830000000 1.61108922000000  93.53439604000000 -535.46734082344699
1.04230264000000 1.78462120000000  91.16787594000000 -535.46591138574695
0.68345377000000 1.88827205000000 103.01730935000000 -535.30762571558603
0.97719294000000 1.66138776000000 106.75383811000000 -535.47490440043305
1.20776286000000 1.69714956000000 119.51213693000000 -535.43567521094997
1.34310772000000 1.67370902000000  89.12326919000000 -535.40936337248900
0.94654078000000 1.52684659000000 119.51771846000000 -535.45733211419702
1.28117152000000 1.63835837000000 111.84282600000000 -535.42528460531196
1.27200693000000 1.65898983000000 101.80613122000000 -535.42940313271299
0.83350734000000 1.64235792000000 109.68919637000000 -535.45243013646495
1.26103022000000 1.72563761000000 104.13857502000000 -535.43173015571904
0.93174938000000 1.51535150000000  92.52719521000000 -535.44690768648297
0.91437741000000 1.71726786000000  58.26398799000000 -535.40347667670801
0.78986658000000 1.72507142000000 108.96512487000000 -535.42994173252805
0.97639674000000 2.05842020000000 111.86493650000000 -535.43925770483202
0.84584608000000 1.74668239000000  91.38708846000000 -535.45368167142601
1.08543088000000 1.64541187000000 130.16677693000000 -535.44683084526002
1.01815887000000 1.55919847000000 120.67761392000000 -535.45912451190804
0.94482568000000 1.64119986000000  96.90542492000000 -535.47235344480498
0.89558005000000 1.58925578000000  86.75442993000000 -535.45170777356805
0.91569603000000 1.55226827000000  83.36628847000000 -535.44091798312490
1.01587490000000 1.64220610000000  59.20986510000000 -535.39916308955901
1.07196268000000 1.66015841000000 114.90241732000000 -535.46329693930295
1.07626833000000 1.92421028000000 103.71470078999999 -535.45080791372800
0.86689550000000 1.83986736000000 100.22374524000000 -535.45656558795395
1.18151395000000 1.67921639000000 112.08417052000000 -535.44611364624802
1.10492028000000 1.92851420000000 105.84616145000000 -535.44533052473196
0.74492799000000 1.67904618000000 118.84233223000000 -535.39151608220004
0.96553896000000 1.74321603000000 113.90767196000000 -535.47022541771503
0.95819484000000 1.83993529000000  94.08840727000000 -535.46778717504196
0.89076684000000 1.69604355000000 109.06180768000000 -535.46853887600003
0.75002145000000 1.70747346000000 121.67033394000001 -535.39255593642997
1.18342310000000 1.60492802000000 104.07175135000000 -535.44432179474200
1.11300055000000 1.79074612000000  96.32713241000000 -535.45750346472096
0.99993394000000 1.78797962000000  92.61229263000000 -535.46982290664005
0.90108560000000 1.72123152000000  91.30177549000000 -535.46727016588397
0.89757750000000 1.63463735000000 101.33481861999999 -535.46915108614701
1.22899751000000 1.72858164000000  89.06695442000000 -535.43440700909605
1.29085880000000 1.43038699000000 100.10589324000000 -535.37587363466696
0.97540579000000 1.93359590000000 119.86297738000000 -535.44729779549300
0.89297920000000 1.71356231000000 113.74466837000000 -535.46615059954297
1.25409091000000 1.78660329000000 102.19962631000000 -535.43069703849096
1.23418303000000 1.67827306000000  71.42735681000001 -535.41035004397804
0.95672705000000 1.58358090000000  72.12804273000000 -535.42563139717197
1.17253039000000 1.69437858000000 132.43421139000000 -535.42822167561599
1.32706816000000 1.68866019000000 139.38333900000001 -535.38786176404597
0.98307283000000 1.89389482000000  90.93757805000000 -535.46234437025998
1.03173064000000 1.66878075000000 106.22111246999999 -535.47161413546701
1.03132364000000 1.61035357000000 103.46465556000000 -535.46884164284404
1.08430838000000 1.59177637000000 109.72836979000000 -535.46012936145496
1.19306910000000 1.70148794000000  63.41297618000000 -535.40549331257603
1.08683799000000 1.67638396000000  93.47170556000000 -535.46222499999499
0.96969205000000 1.57793758000000  80.32992127000000 -535.44401227270396
1.00614146000000 1.73400790000000  80.37139053000000 -535.46002318758497
0.94048011000000 1.67744806000000  69.14602232000000 -535.43426644354997
0.80964821000000 1.68633376000000 105.07118868000001 -535.44305709896605
1.31043368000000 1.62647472000000 103.19863766000000 -535.41995195284892
0.90139235000000 1.89504392000000 104.29842223000000 -535.45732034004493
1.26991130000000 1.70022746000000 124.77531488000000 -535.41798319144004
0.91138650000000 1.96412085000000 112.43433878000000 -535.44652059653197
0.98913845000000 1.71007940000000  81.11651620000001 -535.46102220096304
1.30098092000000 1.65361405000000  92.58659915000000 -535.41956776664097
0.80535552000000 1.68541854000000 124.20011830000000 -535.42962563130800
0.83924357000000 1.79178281000000  99.39266338000000 -535.45170431853501
1.03356372000000 1.90153617000000  95.18692071000000 -535.45928648060396
0.98578843000000 1.52084953000000  75.68643421000000 -535.41671237129003
1.01905340000000 1.50471367000000 119.22106787000000 -535.45016488678198
1.11298098000000 1.70186857000000 109.18904172000001 -535.45963174524400
1.18984317000000 1.70849167000000  99.28153786999999 -535.44655606835795
1.06261360000000 1.68800521000000  91.19956290000000 -535.46447658179102
0.99729336000000 1.94130767000000 109.49657852000000 -535.45382138569596
0.99359483000000 2.16746636000000 100.51873817000001 -535.43173766286804
1.31947640000000 1.49737297000000 101.00431474000000 -535.39614528487596
0.73912297000000 2.04947144000000 104.69594424000000 -535.35748206257404
1.04029045000000 1.61598773000000  92.61312771999999 -535.46327726293998
1.52396084000000 1.72381756000000 109.23014197000001 -535.37848246399994
0.88110247000000 2.08410518000000 102.52346751000000 -535.43205531838316
1.05467296000000 1.63556287000000 100.69109915000000 -535.46760697234197
0.99677098000000 1.82584980000000 113.83982426000000 -535.46316695102098
0.77734731000000 1.77021533000000  98.89923450000001 -535.42058899520998
1.12293288000000 1.71365725000000  71.94332987999999 -535.43299969374891
1.39377023000000 1.57495608000000 101.92224471999999 -535.39776689271298
1.01246152000000 1.71001512000000 102.54868897999999 -535.47356962146205
1.04333587000000 1.62965425000000 105.76156443000001 -535.46904772195899
0.95313926000000 1.72064964000000 103.90707915000000 -535.47498747743896
0.92364488000000 1.81897367000000  77.26882094000000 -535.45440419185604
1.03781136000000 1.49983513000000  99.52391021000000 -535.44609102882202
1.07067775000000 1.65850585000000 100.83891149999999 -535.46668400000999
0.95382653000000 1.54974511000000 118.62934179000000 -535.46184527560695
0.97758830000000 1.65784031000000 143.24281525000001 -535.43896699624202
1.41613850000000 1.67227733000000 110.66339861000000 -535.39902079548199
1.26278443000000 1.78798382000000 100.01975621000000 -535.42896090035504
1.35619121000000 1.55174493000000 102.36863269000000 -535.40181183379502
1.43424420000000 1.65075931000000 112.18009177000000 -535.39477462383195
0.88555917000000 1.89835839000000 100.28969001999999 -535.45515082848999
1.10889032000000 1.88819440000000  99.40753691000000 -535.45061568523602
0.90467666000000 1.59586860000000  87.51889201000000 -535.45528380020505
0.99273996000000 1.96836238000000 114.81010442000000 -535.44726947602896
1.00474460000000 1.69655413000000  76.52737396000001 -535.45250484890596
1.10611178000000 1.71951482000000 104.31354764000000 -535.46165511768299
0.86379985000000 1.78526920000000  89.72166368000001 -535.45683765177796
0.90983867000000 1.74079054000000  84.75205775000001 -535.46280411089504
0.99055757000000 1.87205409000000  93.41345937000000 -535.46465351718996
0.86522061000000 1.70604125000000 102.51662500000000 -535.46387039277602
0.86740000000000 1.65174339000000  81.01385540000000 -535.44507505003696
1.04450437000000 1.61638891000000  81.48854163999999 -535.44914612894604
1.26936723000000 1.90509744000000 103.19778503000001 -535.41741022639997
1.11470641000000 1.63368807000000  93.74518562999999 -535.45549396098795
1.12139841000000 1.67898236000000  67.86707946000000 -535.42210575155298
1.12913319000000 1.54810595000000  97.82045302000000 -535.44385480655706
1.09751369000000 1.80581263000000 101.41860380999999 -535.45913718817496
0.96081235000000 1.77161760000000  66.33207487999999 -535.43678406643403
1.07922770000000 1.74028753000000 103.43139918000000 -535.46523197608997
0.92710484000000 1.55143903000000 118.54160245000000 -535.46104840093801
0.99847886000000 1.86134569000000  92.45655613000000 -535.46497850878802
1.07700600000000 1.75826917000000 108.70454912000000 -535.46323245624899
0.78416288000000 1.57079387000000 110.64929672000000 -535.42196055700697
1.17593194000000 1.52222408000000 106.96943468000001 -535.43324984876699
1.13533499000000 1.79560960000000  99.25513728999999 -535.45365110651517
0.90415428000000 1.69266507000000 119.70748127000000 -535.46421053050403
1.12099635000000 1.95060836000000 103.19679583999999 -535.44130692194892
1.02421632000000 1.70043884000000 103.91487227000000 -535.47265602365997
0.93298664000000 1.84870838000000 111.02253903000000 -535.46245535166997
0.80780554000000 1.73587095000000  89.32984325000000 -535.43613884318802
0.73416889000000 1.69576459000000 132.24950962000000 -535.36625343990102
0.97931320000000 1.50740472000000  95.22452843000001 -535.44856504019117
1.27047465000000 1.70392938000000 105.73632082000000 -535.42995025036703
0.86859541000000 1.84140751000000  94.97153621000000 -535.45659007291795
0.90131329000000 1.67324028000000  90.89162259000000 -535.46604895792700
0.94803122000000 1.91047667000000 101.37434408999999 -535.46084542920596
1.28737342000000 1.51351749000000 100.40751499000000 -535.40662612447204
1.02413891000000 1.96276488000000  98.16915430000000 -535.45366822112703
0.94845133000000 1.63080268000000 136.65745595999999 -535.44890995461697
0.93541979000000 1.86765289000000 110.51743064999999 -535.46098888597896
1.19197304000000 1.68618516000000  79.70442842999999 -535.43113071792493
1.06241630000000 1.74421703000000  92.16870131000000 -535.46533602859699
1.29999882000000 1.67636451000000  69.83704711999999 -535.39555015049916
1.01493054000000 1.44959558000000 112.39406384999999 -535.43535861389500
1.02958526000000 1.73490583000000 110.52144478000000 -535.46925313683903
0.92593426000000 1.68462993000000 103.76583653000000 -535.47412426176891
1.32810683000000 1.72114595000000 109.63816758000000 -535.41640575739700
1.30769179000000 1.64778973000000 111.45832707000000 -535.42025358562205
0.92835363000000 1.95880389000000 115.86908733999999 -535.44633820674403
1.04724182000000 1.72810741000000 112.23596691000000 -535.46679386813400
0.75747066000000 1.71448532000000  87.06487806000000 -535.40030616456897
1.03519248000000 1.74233728000000  79.35487187000000 -535.45669403774195
1.05864691000000 1.68555895000000 133.20957096000001 -535.44612115552900
0.95120069000000 1.64011176000000  95.59594693000000 -535.47177181815596
0.90189680000000 1.60677415000000  88.68662220000000 -535.45802088943503
1.07156675000000 1.45656259000000  96.58371382999999 -535.42360012990105
0.92535569000000 1.67887269000000  99.93898819000000 -535.47368998388492
0.89545283000000 1.67271201000000  97.39401087000000 -535.46913632176495
0.94849397000000 1.89386507000000  93.07238454000000 -535.46267218642890
0.80689946000000 1.72111289000000 122.56274860000001 -535.43037313168497
0.89956691000000 1.79377331000000  97.28772649000000 -535.46683061195199
0.97837102000000 1.83506370000000 118.02520959000000 -535.45956503753496
1.14188729000000 1.61036218000000 109.56987303000000 -535.45219272299903
1.28210585000000 1.70220353000000  63.81499079000000 -535.39263468304796
1.04648286000000 1.76961239000000 110.16180596000000 -535.46575613437096
0.87862283000000 1.71845045000000 127.51745716000001 -535.45058705705003
1.33969078000000 1.69001283000000 115.13734137000000 -535.41202914040400
0.99140010000000 1.80797783000000  96.15497548000000 -535.47006645173406
1.09150627000000 1.70968791000000  86.50364623000000 -535.45722772396698
1.15207415000000 1.67092273000000 129.41957056000001 -535.43645552559701
1.08389670000000 1.80402478000000 103.75187565000000 -535.46089834022098
1.14112362000000 1.62927644000000  96.84759129000000 -535.45235034521204
0.69999490000000 1.45417174000000 102.54219600000000 -535.30962518839999
1.30271325000000 1.70449290000000  93.28363048999999 -535.42134070584200
1.21482782000000 1.68915021000000  89.03152815000000 -535.43656401261001
0.79268689000000 1.67810930000000 124.93330838999999 -535.42200980389896
0.91015491000000 1.64715501000000 107.70842368000000 -535.47156103550299
0.99795273000000 1.67153806000000  80.86755982000000 -535.45797921360702
1.01124501000000 1.76185123000000 108.02668911000001 -535.47047890149202
0.86315775000000 1.66249484000000 114.92466550000000 -535.46005254959698
0.96096368000000 1.55414159000000  70.82666533000000 -535.41367829281501
1.05400770000000 1.62962115000000 109.84119612000001 -535.46706613009803
0.84038665000000 2.03975430000000 100.62425718999999 -535.42594147731199
0.90972047000000 1.83434612000000 100.22536319000000 -535.46529741322900
1.00983814000000 1.82371393000000 104.02282142000000 -535.46744211871305
0.92568308000000 1.67618685000000 115.77783895000000 -535.46986399923298
1.07307083000000 1.66893732000000  73.05384757000000 -535.43763803070897
1.04358650000000 1.59916211000000 122.82465424999999 -535.45865790069195
0.80415922000000 1.61361838000000 117.15663655000000 -535.43463037743197
0.92233957000000 1.89617203000000  89.92571181000000 -535.45980301259306
0.89747288000000 1.59364721000000 106.29126180000000 -535.46653207324891
0.97560309000000 1.67410683000000 103.02305509000000 -535.47541774865294
1.13656446000000 1.54710417000000 105.04967222000001 -535.44535666195895
1.04705351000000 1.77593313000000 109.12002038999999 -535.46578188657099
1.12762044000000 1.68705892000000  64.32688793000000 -535.41450052189805
0.99823640000000 1.66103102000000  88.58726034999999 -535.46689763977895
0.76732554000000 1.71240625000000 109.20522473000000 -535.41485467644497
1.18980229000000 1.68791702000000  97.51630564000000 -535.44608385677498
0.99724338000000 1.84592174000000 110.94262611000001 -535.46315476368704
1.13564665000000 1.51802156000000  98.23817550000000 -535.43601808803396
1.06615723000000 1.71169718000000  95.09122171000000 -535.46651537465198
0.95927211000000 2.02355988000000 109.92762643000000 -535.44449735258797
0.93563295000000 1.78088553000000 105.89319454000000 -535.47082976766205
0.95310614000000 1.51445967000000 120.10642616000000 -535.45462612718597
1.20510428000000 1.69450102000000 114.50320383000000 -535.43995629981600
1.23260765000000 1.77819447000000  99.21096763000000 -535.43576701572283
0.95733237000000 1.62219204000000 106.99559888000000 -535.47343756815292
1.00205758000000 1.70248221000000  81.12162225000000 -535.46015336728703
1.03645879000000 1.66085358000000  95.11501754000000 -535.46888309786095
1.28091156000000 1.73084199000000 100.40721501000000 -535.42759313621502
0.84328851000000 1.64137065000000  90.04263834000000 -535.44915222545205
1.05668725000000 1.67671237000000  90.57292914999999 -535.46432788471805
0.86557499000000 1.79023416000000  89.32822487000000 -535.45684778429097
1.00104124000000 1.76191771000000  97.53579963000000 -535.47237098672701
0.93887063000000 2.21532063000000  90.42137221999999 -535.42739613951403
1.05987787000000 1.60888408000000  90.54012840000000 -535.45826382441101
0.86233506000000 1.71176498000000  90.83532571000001 -535.45874258599497
1.00134864000000 1.64567908000000  84.68884808000000 -535.46093892812598
0.90267636000000 1.60744010000000 107.84627030000000 -535.46845788800795
0.92038147000000 1.76006740000000 125.98635154999999 -535.45593824446598
1.03979965000000 1.73708325000000 141.56484821999999 -535.43333622234695
0.94926897000000 1.61163813000000 107.11630153999999 -535.47254739761399
0.96782856000000 1.87665668000000 106.44608269000000 -535.46314570961692
0.92595267000000 1.75155615000000 119.66158540000001 -535.46364518595692
0.96125298000000 1.62224943000000 132.62327922000000 -535.45424575002198
0.82991450000000 1.47697821000000 108.65480370000000 -535.42511223695305
1.01808249000000 1.58689435000000  93.73913477000001 -535.46254500951500
0.84202217000000 1.75143041000000 114.37094936000000 -535.45058456450204
0.99548740000000 1.90344786000000 103.32454117000000 -535.46083460961199
1.08357988000000 2.00322890000000  99.41289558000000 -535.44218410615599
1.22224975000000 1.78421393000000 104.27905013000000 -535.43704627410898
0.92749029000000 1.80059714000000 101.43409290000000 -535.46973936281995
1.14342709000000 1.73996564000000 112.16941839000000 -535.45165718807004
0.99288944000000 1.70528249000000  68.75882353999999 -535.43786196495103
0.97375476000000 1.51748673000000  85.10527352000000 -535.43705654308701
1.01149709000000 1.70250367000000 112.40072834000000 -535.47098251869897
0.96089279000000 1.59343043000000  87.32128861000000 -535.45863893659998
0.99711198000000 1.84301472000000  92.45328016000001 -535.46647311288905
1.04798835000000 2.04598625000000  97.83943385000001 -535.44204621773997
0.91963648000000 1.76561305000000  61.37591490000000 -535.42015089103097
0.75621858000000 1.77800767000000 112.51697167000000 -535.40014731084000
1.02740796000000 1.73119307000000  82.02877855000000 -535.46054730482001
0.95520143000000 2.04735694000000  85.71423793000000 -535.44534370515601
1.12059629000000 1.80123338000000  95.70804694000000 -535.45553037234401
0.88293634000000 1.78206704000000 102.69228398000000 -535.46462490849206
0.92043884000000 1.80116755000000 107.51564374000000 -535.46751525698505
0.99912757000000 1.65472462000000  84.44802107000000 -535.46157810657996
0.76859598000000 1.61253969000000  92.44522823000000 -535.40886858425301
0.94475444000000 1.45840879000000  90.50826275000000 -535.42356149514399
0.94687427000000 1.65361114000000 134.12646303000000 -535.45229208428805
0.95516933000000 1.60686342000000  88.74794523000000 -535.46238928653202
0.80738407000000 1.68811028000000  96.88285127000000 -535.44061070672092
1.01251130000000 1.53981315000000  95.15002118000000 -535.45535877908401
1.03667496000000 1.84048985000000 109.91673532000000 -535.46126162701898
0.93654084000000 1.74557316000000  64.08643118000001 -535.42788584424397
1.01521330000000 1.62083154000000  94.29863290999999 -535.46741075100897
0.89179795000000 1.63222109000000  96.49779928000000 -535.46609007583004
0.93938494000000 1.60445584000000  91.77122579000000 -535.46481012435697
0.79648662000000 1.70872025000000  77.09005074000000 -535.41342152598099
0.98250409000000 1.83618445000000  91.76755611999999 -535.46728208900299
1.16042487000000 1.69014057000000 132.78879050000000 -535.43013921111901
0.99124897000000 1.81986026000000 120.07940365000000 -535.45870498639897
1.04632750000000 1.95825804000000 104.34373686000001 -535.45049078798797
0.90833747000000 1.70392837000000  72.76805069000000 -535.44215538806202
1.24096252000000 1.89813062000000 101.53644322000000 -535.42440309628796
0.94718104000000 1.48834750000000 119.16809272000000 -535.44870064945405
1.11782751000000 1.57392506000000  99.19177505000000 -535.45118052050100
1.01243197000000 1.60514683000000 119.00960840000000 -535.46520660114891
0.96844723000000 1.91856789000000 105.98719045999999 -535.45885397782899
0.97563048000000 1.55052712000000 105.10743185000000 -535.46487673931597
0.87193548000000 1.70067140000000 115.89718127000000 -535.46095733271500
1.12692428000000 1.48220486000000  99.88655221000000 -535.42796328368604
0.86426918000000 1.71098924000000  98.53255668000000 -535.46304027556596
1.10745522000000 1.67329162000000 145.38325104000000 -535.42084931299405
1.34258474000000 1.69786060000000 105.24302365000000 -535.41505748645295
0.97206722000000 1.63360213000000  79.97054244000000 -535.45306334368399
1.03768185000000 1.58354159000000 112.05288654000000 -535.46470095767199
0.83316888000000 1.70105598000000  98.91040378000000 -535.45301852745399
0.76778044000000 1.75945315000000  91.63534982000000 -535.41160836186896
0.94911604000000 1.68979777000000  95.35325055000000 -535.47362553964001
0.92837346000000 1.69343868000000 118.56477504000000 -535.46766337986196
1.09724789000000 1.70707638000000 110.43418864000000 -535.46155170501004
0.96086210000000 1.73577325000000 115.13084019000000 -535.46978790212495
0.89475255000000 1.54305376000000 112.67346947000000 -535.45858412714597
0.86361688000000 1.54115110000000 100.64283134999999 -535.44999161648491
0.87327310000000 1.78068999000000 101.76230305000000 -535.46267260806303
1.40022706000000 1.61305399000000 102.08002080000000 -535.40055649886995
1.19329623000000 1.66119947000000  95.40813537000000 -535.44375909782605
0.88981481000000 1.97651931000000 104.24837303000000 -535.44605889349305
0.96412112000000 1.54136775000000  99.91471876999999 -535.46125527004597
0.99645460000000 1.53497974000000 132.38078046000001 -535.44611704855402
0.98519046000000 1.82639116000000 105.96655248000000 -535.46784827646002
1.01098130000000 1.48848636000000 109.97698076000000 -535.44905924663499
1.36083098000000 1.66800529000000 115.66707431000000 -535.40758761239795
1.03438997000000 1.49445834000000  98.55718803000001 -535.44402643326498
0.97656742000000 1.93358194000000 109.04372386999999 -535.45559624530495
0.97586149000000 1.61752531000000  83.69775863000000 -535.45701435776800
1.05172868000000 1.65922769000000 136.17950279999999 -535.44338630769596
0.90888651000000 1.71421445000000 115.22074410000000 -535.46750905266197
1.01702538000000 1.62221680000000 109.99910985000000 -535.47048264841806
1.00834451000000 1.74334698000000  72.62296670000001 -535.44802594344196
0.95014138000000 1.87754367000000  84.27604180000000 -535.46020738759103
0.95247282000000 2.09109028000000  88.01636030000000 -535.44114270925797
0.85745733000000 1.71612596000000 111.10904517000000 -535.45936598678304
1.01030808000000 1.61027235000000 119.01615701999999 -535.46567938894702
1.01991737000000 1.74281773000000 137.30389122000000 -535.44148257673305
1.03794885000000 1.78647572000000  89.35569101000000 -535.46532502550497
1.19063719000000 1.69928395000000  97.28785680000000 -535.44597318937497
1.08174719000000 1.76622608000000 103.61303081000000 -535.46364758580796
0.87840264000000 1.96660960000000  99.19154183000001 -535.44622637865996
0.81425840000000 1.62804372000000 120.73165695000000 -535.43768469489305
0.95053671000000 1.75854926000000 107.95439399999999 -535.47222949496404
1.09418443000000 1.80406713000000  96.06364935000001 -535.45965804137404
1.10421226000000 1.90241337000000 105.95747511000000 -535.44817642019495
0.95368370000000 1.54998671000000 123.94170559000000 -535.45799862607498
1.04088731000000 1.66636561000000  66.98985933000000 -535.42665714942405
1.00752244000000 1.86321613000000 104.12663188000001 -535.46400546921200
1.01936210000000 1.69502431000000 129.70787515999999 -535.45463338919899
1.25223351000000 1.43643260000000 104.92088041000000 -535.38963375387902
1.03778593000000 1.74931574000000 125.08568319000000 -535.45563757580999
1.00557399000000 1.66146278000000  81.77466015000000 -535.45809084042605
1.34486789000000 1.69437019000000 116.19856195000000 -535.41022433884598
1.03893558000000 1.93610092000000 108.86141675000000 -535.45165744094299
0.93054255000000 1.57616086000000  86.26796383000000 -535.45272513063799
0.96268324000000 1.97371236000000 103.23222697000000 -535.45361489936602
0.93882998000000 1.57881846000000 113.21769508000000 -535.46775943006196
1.01382579000000 1.81306362000000  91.13764784000000 -535.46698993271502
0.86903730000000 1.61939737000000  80.63597718000000 -535.44067447764496
0.96147847000000 1.72660859000000 118.20721970000000 -535.46789952298900
0.95484987000000 1.67412137000000  90.50075266000000 -535.47011861075600
0.98337607000000 1.75894357000000 122.93745507000000 -535.46114535229503
0.92217796000000 1.80961703000000  79.41806778000000 -535.45720756267497
1.09834612000000 1.65595063000000 133.50321708999999 -535.44052324158304
1.01044796000000 1.85723485000000 116.45413506000000 -535.45728452419917
0.94957895000000 1.93084725000000  87.98538791999999 -535.45773792365605
1.14712175000000 1.70207765000000  65.92043689000000 -535.41708502934000
1.05582339000000 1.64797494000000  92.79737466000000 -535.46450003588495
0.87081774000000 1.87946010000000  95.41278135000000 -535.45384022032101
1.26627158000000 1.70633400000000  96.50464825000000 -535.43027874622703
1.26257017000000 1.68160836000000  78.18811857999999 -535.41495460639806
1.08381664000000 1.67672935000000 107.74742362000001 -535.46484971139500
1.25598262000000 2.00100985000000 102.61896977000001 -535.41007005601602
0.82783487000000 1.69117426000000  84.07806979999999 -535.43930332968716
1.12973918000000 1.64778187000000  88.25413369000000 -535.44954490458701
1.07643200000000 1.72510819000000  77.52015270000000 -535.44908089668399
0.97807789000000 1.43681750000000  95.90523899000000 -535.42163715791196
0.92916351000000 1.57236363000000  79.53255661999999 -535.43935930077396
0.80662079000000 1.76684955000000  92.82926216000000 -535.43687819953300
0.91039250000000 1.75463941000000 113.98825351000001 -535.46635019502196
1.08365048000000 1.71686321000000  66.25661242000000 -535.42709682631096
1.07061220000000 1.78625302000000 114.90974810000000 -535.45864693161298
0.81065883000000 1.67570574000000  95.41711152000001 -535.44137467623000
1.45057782000000 1.71649367000000 114.97255824000000 -535.38959915845101
0.99319787000000 1.44004176000000  79.84845906000000 -535.39093623916801
0.83673910000000 1.70009656000000 134.04062759000001 -535.43118107395799
1.30080015000000 1.69553024000000 138.85315639999999 -535.39362018615691
0.87033460000000 1.69986649000000  68.65344946000000 -535.42427698621100
0.98215980000000 1.57195544000000 110.72681258000000 -535.46782909111596
1.10869969000000 1.64862353000000 118.45506412000000 -535.45509612995204
1.21297121000000 1.67528216000000  61.27047065000000 -535.39541099193195
1.01019936000000 1.54578355000000 101.97690423000000 -535.46133100173097
0.97867809000000 1.67045815000000  79.55162561000000 -535.45636658688397
1.16156923000000 1.67876139000000 106.90031690000001 -535.45178359025795
0.97063427000000 1.94714333000000 122.18764717000001 -535.44344723092399
1.07450681000000 1.64603507000000  77.75181200000000 -535.44346375020905
1.21932826000000 1.85277968000000 100.93436026000001 -535.43312979360803
1.28132104000000 1.59572908000000 102.52364996999999 -535.42324798837899
0.90323704000000 1.95461660000000 102.58318335000000 -535.45147982897799
1.04336462000000 1.81252784000000 116.21150206999999 -535.45881168975097
1.04107511000000 1.81499986000000 107.04040238000000 -535.46442056340697
1.24174801000000 1.65306289000000 103.64738646000001 -535.43559753649095
1.13260713000000 1.67325680000000  77.03857762000000 -535.43677907551796
0.96230201000000 1.87770370000000 113.62638353000000 -535.45885389942998
1.20307366000000 1.57422863000000 105.44095602000000 -535.43706006495904
0.90095136000000 1.48049310000000 108.64537793000000 -535.44456585463399
1.00268753000000 1.78169462000000  83.41731079000000 -535.46364401866492
0.89036263000000 1.54733951000000  89.33038291000000 -535.44601748758896
0.97349982000000 1.80131471000000 103.74652550000000 -535.47079105012199
1.05874232000000 1.74529434000000 106.32160303000001 -535.46716992097402
1.01756930000000 1.75932600000000  70.28530300000000 -535.44381578321600
1.12338486000000 2.05740067000000 104.21946461000000 -535.42841759010003
1.11261402000000 1.71565910000000 140.04137921000000 -535.42687116487900
1.00049357000000 1.59904986000000  91.25471138000000 -535.46319106917895
1.02907079000000 1.61157544000000 118.24634938000000 -535.46465883605697
1.13731638000000 1.52795576000000 100.21922116000000 -535.43947145052005
0.94989347000000 1.72625264000000 102.74867184999999 -535.47483332397803
1.13933314000000 1.69153660000000 124.66782327000000 -535.44386663325497
0.85823460000000 1.60978510000000 119.86867500000000 -535.45412863852403
1.24011757000000 1.61601604000000  99.82191994999999 -535.43303115375102
0.97213815000000 1.75355079000000  88.38798026000001 -535.46946377791801
1.11805333000000 2.05528541000000 104.64591686000000 -535.42936433976092
1.35090587000000 1.69955295000000 103.80581094000000 -535.41346467806295
1.04323152000000 1.79478265000000 118.17507831000000 -535.45867001551699
1.01692728000000 1.85012779000000 103.73183926999999 -535.46469337524297
0.95012640000000 1.54857746000000  99.24558227000000 -535.46216695195517
1.04541467000000 1.84505911000000 109.28675926000000 -535.46025745732095
1.39809357000000 1.61900270000000 106.63766184000001 -535.40175602910892
0.87573530000000 1.80346908000000  90.12244461000000 -535.45918725114302
1.01309775000000 1.62637589000000  58.85103771000000 -535.39391907549691
1.05038785000000 1.46325125000000 104.19712603000001 -535.43511199405202
1.23627588000000 1.67959443000000 100.33975541000000 -535.43715684752704
0.97684044000000 1.81767522000000 110.15346266000000 -535.46691741206598
0.99151748000000 1.72228933000000  72.22436691999999 -535.44674501638701
0.86712302000000 1.70001289000000  71.80160026999999 -535.43118540649698
1.01796809000000 1.51299602000000  91.46638657000000 -535.44369965216401
0.92803476000000 1.68529528000000  63.83797115000000 -535.41913809839798
1.46185906000000 1.69492173000000  86.61087261999999 -535.38422532213599
0.99077196000000 1.70652497000000 131.14321121000000 -535.45421798381903
0.95125988000000 1.51991065000000  94.64807209000000 -535.45158649019402
0.92176803000000 1.62902604000000 129.37228902999999 -535.45678245884096
1.16401024000000 1.50700131000000 102.38604085000000 -535.43040371966492
1.12182608000000 1.73604544000000 107.53509724000000 -535.45772647758702
0.93051407000000 1.74410684000000 114.37005215000001 -535.46868688060397
1.02887979000000 1.65714723000000 111.68258896000000 -535.47007937224703
0.97205709000000 1.93319764000000  84.77203840999999 -535.45639539250897
0.93438637000000 1.78625522000000 105.04110473999999 -535.47061825215803
1.03036949000000 1.63930403000000 121.49955649000000 -535.46301626726802
0.85112281000000 2.01459477000000 102.35370666000000 -535.43223352231200
1.19475274000000 1.65654902000000  87.02457303000000 -535.43697721866795
1.07788934000000 1.57564190000000  98.49180848000000 -535.45733203549696
1.03578315000000 1.82370230000000 104.86651327000000 -535.46501327115595
0.96197900000000 1.66817604000000  59.31920874000000 -535.40365307142497
0.96535550000000 1.67792788000000 127.23201229999999 -535.46071697327397
1.00912052000000 1.56988827000000 123.23473610000001 -535.45908436663296
1.02352220000000 1.67107748000000 117.30544285000001 -535.46733765929002
1.09702068000000 1.79171406000000  99.26437778000000 -535.46025613859297
0.94774520000000 1.51540851000000 103.51193752000000 -535.45682817399290
1.00156952000000 1.68641058000000 115.10042366000000 -535.47038623789695
0.90156023000000 1.56225429000000 106.72330482000000 -535.46321303873799
1.00621403000000 1.89924180000000 115.16883475000000 -535.45416056201691
1.25568040000000 1.69884529000000 102.22505468999999 -535.43339677898700
0.87520534000000 1.72678821000000  72.15730718000000 -535.43615197560598
0.96590642000000 1.61031814000000 122.68036981000000 -535.46465072472893
1.06555695000000 1.62375960000000  90.02083775000000 -535.45878176859401
0.94172779000000 1.57310351000000  69.89561401000000 -535.41536918239399
0.97036439000000 1.70836115000000  68.73389515000000 -535.43810537932302
1.26598319000000 1.69667369000000 127.92533276000000 -535.41537191806401
1.03726535000000 1.68483918000000 122.02280331999999 -535.46178634818295
1.03322605000000 1.66239321000000 115.65736142000000 -535.46754072189117
0.85640744000000 2.11845417000000 106.96146576000000 -535.41963273166095
1.04058989000000 1.70697421000000  88.78662731999999 -535.46565571143799
1.21623438000000 1.68240570000000 106.54687316000000 -535.44111238053802
1.03077745000000 1.60502861000000 113.22894313000000 -535.46691784383995
0.86503093000000 1.74701941000000  85.39570586000001 -535.45465450015104
1.06662633000000 1.76572651000000 119.17844071000000 -535.45715736003797
1.03669236000000 1.69022642000000 149.27196942000000 -535.42387015874283
1.01014605000000 1.70743516000000 132.57183988000000 -535.45110463628600
0.88827056000000 1.83942852000000 105.00469860000000 -535.46046755972600
1.07146349000000 1.53886718000000 110.04337978000000 -535.45443409230495
1.09919968000000 1.65812190000000  96.44679351000001 -535.46110819054093
0.95336085000000 1.82953145000000 126.66919387000000 -535.45091024694716
0.88493135000000 1.72876848000000 102.44946172000000 -535.46780150248196
0.92882897000000 1.73696891000000  95.88660593000000 -535.47247586146716
0.82658256000000 1.69704544000000 113.37564374000000 -535.44792827851802
0.95835598000000 1.55820232000000  76.83213542000000 -535.43121936412297
0.96464303000000 1.46822874000000 139.05401092000000 -535.42512822203901
0.96573790000000 1.50812517000000  79.84117320000000 -535.42261446941700
1.42995165000000 1.84086937000000 102.24527021999999 -535.39033367693503
1.31741462000000 1.69365695000000 102.34344067000001 -535.42048860335797
0.88026357000000 1.54696351000000 106.12932309000000 -535.45696940944492
1.02823422000000 1.80290475000000 117.78120708000000 -535.45983660783099
0.92807638000000 1.70276062000000  63.74098119000000 -535.42135329890505
0.91731462000000 1.72290660000000 104.54637545999999 -535.47263137706898
0.92421046000000 1.72294737000000 114.27932887000000 -535.46935954021603
0.88774620000000 1.76041994000000  98.22858478000001 -535.46679100687800
0.95339800000000 2.08886206000000  83.16092894000001 -535.44007228921396
1.00226672000000 1.63628310000000  69.68166711000001 -535.43057582643701
1.12722288000000 1.69454008000000 142.97420858999999 -535.42068414089795
0.93771826000000 1.58390144000000 106.03254978000000 -535.46945066147998
1.28817198000000 1.68253108000000 120.32322755000000 -535.41889351391603
0.98025695000000 1.57535900000000 118.08420464000000 -535.46513991825293
1.16245483000000 1.59630813000000 107.79079002000000 -535.44748597440196
0.76642123000000 1.49203948000000 103.53046655999999 -535.39204034593399
1.17924049000000 1.73136151000000 113.52205041000001 -535.44452822968401
0.91224048000000 1.79204731000000  91.24510739000000 -535.46676842501904
1.03561808000000 1.70957665000000 105.42179410999999 -535.47121598041394
1.00130934000000 1.57378198000000 103.53839963000000 -535.46714091570095
0.82731462000000 1.71960515000000 118.53278467000000 -535.44369211025503
0.99264340000000 1.81291184000000  60.04557409000000 -535.42400705483396
1.03967640000000 1.67371026000000 110.08328607000000 -535.46978631693696
1.17313375000000 1.62045884000000 102.65919221000000 -535.44747906686803
0.85209995000000 1.73379500000000  77.78014544000000 -535.44058598732397
0.77491518000000 1.66679742000000 115.53833591999999 -535.41850766381594
1.41981197000000 1.64503910000000 104.66043325000000 -535.39884268239996
0.99753629000000 1.73167685000000  89.02405675000000 -535.46941697986995
0.95875969000000 1.55645581000000  96.21179607000001 -535.46170343270603
0.89778183000000 1.76132857000000  86.29112400000000 -535.46236350381400
1.10686106000000 1.83314836000000 101.48451061000000 -535.45557465441698
0.89458101000000 1.53696658000000 116.02467557000000 -535.45638062419903
0.89767477000000 1.72557279000000  75.44982983000000 -535.44724966376100
0.99115805000000 1.54826403000000 121.82178541000000 -535.45866912050894
0.95311224000000 1.85531480000000 115.41127328000000 -535.45967120405601
0.93684159000000 1.58147996000000 137.29981975000001 -535.44583476967796
1.05899210000000 1.68376220000000 111.50085232000001 -535.46688434888199
0.99812362000000 1.66089609000000  88.92764692999999 -535.46723021202797
0.98835183000000 1.80976437000000 100.30641301999999 -535.47027727301690
1.05453552000000 1.75243314000000  86.51885497000001 -535.46241122571291
0.96579691000000 1.59721361000000 108.31793437000000 -535.47136286874695
1.05097642000000 1.60466653000000 107.98635417000000 -535.46615474922601
0.98462819000000 1.84080533000000 123.17376623000000 -535.45372435759805
1.15432535000000 1.72281017000000 104.79951274000000 -535.45306181363117
0.98301806000000 1.68005800000000 139.06782784000001 -535.44445846034603
0.99999862000000 1.66384072000000 108.17701155000000 -535.47368183742401
1.11891519000000 1.77143103000000  96.23057841000001 -535.45746733808301
0.95132899000000 1.78438834000000  86.83994178000000 -535.46723568199002
1.02804741000000 1.50633645000000 103.05409966000001 -535.45102894239903
1.04253991000000 1.92721125000000  97.39965537000000 -535.45582784210899
1.00707471000000 1.90973877000000  94.32689868000000 -535.46049599423998
1.01102704000000 1.73251539000000 128.00465073999999 -535.45561789455917
0.96325634000000 1.79520044000000  86.87346531999999 -535.46710447209296
0.90975965000000 1.66715687000000 104.24029139000000 -535.47233144269296
1.25890908000000 1.62217183000000 103.23467334000000 -535.43036674206803
0.92221831000000 1.65914049000000 152.59125875999999 -535.42362317251104
1.35632644000000 1.73671527000000  95.75180493000001 -535.41085191719003
0.98214442000000 1.69171103000000  74.33398129000000 -535.44876455393103
0.90735935000000 1.64527547000000 112.50814649000000 -535.46964107374299
0.64321608000000 1.68888476000000 103.00000000000000 -535.24950347467507
0.65075377000000 1.68888476000000 103.00000000000000 -535.26499014333569
0.65829146000000 1.68888476000000 103.00000000000000 -535.27960629862719
0.68090452000000 1.68888476000000 103.00000000000000 -535.31866121774101
0.68844221000000 1.68888476000000 103.00000000000000 -535.33021349268324
0.69597990000000 1.68888476000000 103.00000000000000 -535.34109345024717
0.70351759000000 1.68888476000000 103.00000000000000 -535.35133464322939
0.71105528000000 1.68888476000000 103.00000000000000 -535.36097068431491
0.71859296000000 1.68888476000000 103.00000000000000 -535.37002805009377
0.72613065000000 1.68888476000000 103.00000000000000 -535.37853714546748
0.73366834000000 1.68888476000000 103.00000000000000 -535.38652506157393
0.74120603000000 1.68888476000000 103.00000000000000 -535.39401749983131
0.74874372000000 1.68888476000000 103.00000000000000 -535.40103885711767
0.75628141000000 1.68888476000000 103.00000000000000 -535.40761229269833
0.76381910000000 1.68888476000000 103.00000000000000 -535.41375979423219
0.77135678000000 1.68888476000000 103.00000000000000 -535.41950223262575
0.77889447000000 1.68888476000000 103.00000000000000 -535.42485946141403
0.78643216000000 1.68888476000000 103.00000000000000 -535.42985031856927
0.79396985000000 1.68888476000000 103.00000000000000 -535.43449271699853
0.80150754000000 1.68888476000000 103.00000000000000 -535.43880368353632
0.80904523000000 1.68888476000000 103.00000000000000 -535.44279940475315
0.81658291000000 1.68888476000000 103.00000000000000 -535.44649654268608
0.82412060000000 1.68888476000000 103.00000000000000 -535.44990715241079
0.83165829000000 1.68888476000000 103.00000000000000 -535.45304647766977
0.83919598000000 1.68888476000000 103.00000000000000 -535.45592777360810
0.84673367000000 1.68888476000000 103.00000000000000 -535.45856365833879
0.86180905000000 1.68888476000000 103.00000000000000 -535.46314663404542
0.86934673000000 1.68888476000000 103.00000000000000 -535.46511604259467
0.87688442000000 1.68888476000000 103.00000000000000 -535.46688473248082
0.88442211000000 1.68888476000000 103.00000000000000 -535.46846256961589
0.89195980000000 1.68888476000000 103.00000000000000 -535.46985896844433
0.89949749000000 1.68888476000000 103.00000000000000 -535.47108289485459
0.90703518000000 1.68888476000000 103.00000000000000 -535.47214289090425
0.91457286000000 1.68888476000000 103.00000000000000 -535.47304710145386
0.92211055000000 1.68888476000000 103.00000000000000 -535.47380329267264
0.92964824000000 1.68888476000000 103.00000000000000 -535.47441887046386
0.93718593000000 1.68888476000000 103.00000000000000 -535.47490089650273
0.94472362000000 1.68888476000000 103.00000000000000 -535.47525610887146
0.95226131000000 1.68888476000000 103.00000000000000 -535.47549092568477
0.95979899000000 1.68888476000000 103.00000000000000 -535.47561148889440
0.96733668000000 1.68888476000000 103.00000000000000 -535.47562364068210
0.97487437000000 1.68888476000000 103.00000000000000 -535.47553296845945
0.98241206000000 1.68888476000000 103.00000000000000 -535.47534479987405
0.98994975000000 1.68888476000000 103.00000000000000 -535.47506422350943
1.02763819000000 1.68888476000000 103.00000000000000 -535.47243769080217
1.03517588000000 1.68888476000000 103.00000000000000 -535.47169729561529
1.04271357000000 1.68888476000000 103.00000000000000 -535.47089421550402
1.05025126000000 1.68888476000000 103.00000000000000 -535.47003196415653
1.05778894000000 1.68888476000000 103.00000000000000 -535.46911390157811
1.06532663000000 1.68888476000000 103.00000000000000 -535.46814323944636
1.07286432000000 1.68888476000000 103.00000000000000 -535.46712304252378
1.08793970000000 1.68888476000000 103.00000000000000 -535.46494564597833
1.09547739000000 1.68888476000000 103.00000000000000 -535.46379392245660
1.10301508000000 1.68888476000000 103.00000000000000 -535.46260363271563
1.11055276000000 1.68888476000000 103.00000000000000 -535.46137722377694
1.11809045000000 1.68888476000000 103.00000000000000 -535.46011703383670
1.12562814000000 1.68888476000000 103.00000000000000 -535.45882529801111
1.13316583000000 1.68888476000000 103.00000000000000 -535.45750415757641
1.14070352000000 1.68888476000000 103.00000000000000 -535.45615565304968
1.14824121000000 1.68888476000000 103.00000000000000 -535.45478174200207
1.16331658000000 1.68888476000000 103.00000000000000 -535.45196510736321
1.17085427000000 1.68888476000000 103.00000000000000 -535.45052588110855
1.17839196000000 1.68888476000000 103.00000000000000 -535.44906825936346
1.19346734000000 1.68888476000000 103.00000000000000 -535.44610487825082
1.20100503000000 1.68888476000000 103.00000000000000 -535.44460114046967
1.20854271000000 1.68888476000000 103.00000000000000 -535.44308488357206
1.21608040000000 1.68888476000000 103.00000000000000 -535.44155742266275
1.22361809000000 1.68888476000000 103.00000000000000 -535.44002001385718
1.23115578000000 1.68888476000000 103.00000000000000 -535.43847385964978
1.23869347000000 1.68888476000000 103.00000000000000 -535.43692011790370
1.24623116000000 1.68888476000000 103.00000000000000 -535.43535988317592
1.25376884000000 1.68888476000000 103.00000000000000 -535.43379422159990
1.26130653000000 1.68888476000000 103.00000000000000 -535.43222413468811
1.28391960000000 1.68888476000000 103.00000000000000 -535.42749681550447
1.29145729000000 1.68888476000000 103.00000000000000 -535.42591831087168
1.29899497000000 1.68888476000000 103.00000000000000 -535.42433982583066
1.30653266000000 1.68888476000000 103.00000000000000 -535.42276213361538
1.31407035000000 1.68888476000000 103.00000000000000 -535.42118598227717
1.32160804000000 1.68888476000000 103.00000000000000 -535.41961208226599
1.32914573000000 1.68888476000000 103.00000000000000 -535.41804111558224
1.33668342000000 1.68888476000000 103.00000000000000 -535.41647373454123
1.34422111000000 1.68888476000000 103.00000000000000 -535.41491056361042
1.35929648000000 1.68888476000000 103.00000000000000 -535.41179922130812
1.37437186000000 1.68888476000000 103.00000000000000 -535.40871155693765
1.38190955000000 1.68888476000000 103.00000000000000 -535.40717790210397
1.38944724000000 1.68888476000000 103.00000000000000 -535.40565167428531
1.39698492000000 1.68888476000000 103.00000000000000 -535.40413333586901
1.40452261000000 1.68888476000000 103.00000000000000 -535.40262332079271
1.41206030000000 1.68888476000000 103.00000000000000 -535.40112204785976
1.41959799000000 1.68888476000000 103.00000000000000 -535.39962991664095
1.42713568000000 1.68888476000000 103.00000000000000 -535.39814730998478
1.43467337000000 1.68888476000000 103.00000000000000 -535.39667459023133
1.44221106000000 1.68888476000000 103.00000000000000 -535.39521210738701
1.44974874000000 1.68888476000000 103.00000000000000 -535.39376019231156
1.45728643000000 1.68888476000000 103.00000000000000 -535.39231915784615
1.46482412000000 1.68888476000000 103.00000000000000 -535.39088930997877
1.47236181000000 1.68888476000000 103.00000000000000 -535.38947093183663
1.47989950000000 1.68888476000000 103.00000000000000 -535.38806429909835
1.48743719000000 1.68888476000000 103.00000000000000 -535.38666966974893
1.49497487000000 1.68888476000000 103.00000000000000 -535.38528729359462
1.50251256000000 1.68888476000000 103.00000000000000 -535.38391739852011
1.51005025000000 1.68888476000000 103.00000000000000 -535.38256021189534
1.51758794000000 1.68888476000000 103.00000000000000 -535.38121594209315
1.52512563000000 1.68888476000000 103.00000000000000 -535.37988478620036
1.53266332000000 1.68888476000000 103.00000000000000 -535.37856693533308
1.54020101000000 1.68888476000000 103.00000000000000 -535.37726256467511
1.54773869000000 1.68888476000000 103.00000000000000 -535.37597184324932
1.55527638000000 1.68888476000000 103.00000000000000 -535.37469492468574
1.56281407000000 1.68888476000000 103.00000000000000 -535.37343195816970
1.57035176000000 1.68888476000000 103.00000000000000 -535.37218307628439
1.57788945000000 1.68888476000000 103.00000000000000 -535.37094841609633
1.58542714000000 1.68888476000000 103.00000000000000 -535.36972808893006
1.59296482000000 1.68888476000000 103.00000000000000 -535.36852221140339
1.60050251000000 1.68888476000000 103.00000000000000 -535.36733087667199
1.61557789000000 1.68888476000000 103.00000000000000 -535.36499222648160
1.62311558000000 1.68888476000000 103.00000000000000 -535.36384507080288
1.63065327000000 1.68888476000000 103.00000000000000 -535.36271278821118
1.63819095000000 1.68888476000000 103.00000000000000 -535.36159544800466
1.64572864000000 1.68888476000000 103.00000000000000 -535.36049309751445
1.65326633000000 1.68888476000000 103.00000000000000 -535.35940578608620
1.66080402000000 1.68888476000000 103.00000000000000 -535.35833356190005
1.66834171000000 1.68888476000000 103.00000000000000 -535.35727644968654
1.67587940000000 1.68888476000000 103.00000000000000 -535.35623448414572
1.68341709000000 1.68888476000000 103.00000000000000 -535.35520767939329
1.69095477000000 1.68888476000000 103.00000000000000 -535.35419605877610
1.69849246000000 1.68888476000000 103.00000000000000 -535.35319962340668
1.70603015000000 1.68888476000000 103.00000000000000 -535.35221838039752
1.71356784000000 1.68888476000000 103.00000000000000 -535.35125232474888
1.72110553000000 1.68888476000000 103.00000000000000 -535.35030144475309
1.72864322000000 1.68888476000000 103.00000000000000 -535.34936572541051
1.73618090000000 1.68888476000000 103.00000000000000 -535.34844515110524
1.74371859000000 1.68888476000000 103.00000000000000 -535.34753969207736
1.75125628000000 1.68888476000000 103.00000000000000 -535.34664931887846
1.76633166000000 1.68888476000000 103.00000000000000 -535.34491367419673
1.77386935000000 1.68888476000000 103.00000000000000 -535.34406831676301
1.78140704000000 1.68888476000000 103.00000000000000 -535.34323786674076
1.78894472000000 1.68888476000000 103.00000000000000 -535.34242227465074
1.79648241000000 1.68888476000000 103.00000000000000 -535.34162147376355
1.81155779000000 1.68888476000000 103.00000000000000 -535.34006399429757
1.81909548000000 1.68888476000000 103.00000000000000 -535.33930717546548
1.82663317000000 1.68888476000000 103.00000000000000 -535.33856486497882
1.84170854000000 1.68888476000000 103.00000000000000 -535.33712345391803
1.84924623000000 1.68888476000000 103.00000000000000 -535.33642418095928
1.85678392000000 1.68888476000000 103.00000000000000 -535.33573907381947
1.86432161000000 1.68888476000000 103.00000000000000 -535.33506803201021
1.87185930000000 1.68888476000000 103.00000000000000 -535.33441097147033
1.87939698000000 1.68888476000000 103.00000000000000 -535.33376777765443
1.88693467000000 1.68888476000000 103.00000000000000 -535.33313835275828
1.90201005000000 1.68888476000000 103.00000000000000 -535.33192036702360
1.91708543000000 1.68888476000000 103.00000000000000 -535.33075612887706
1.92462312000000 1.68888476000000 103.00000000000000 -535.33019387285731
1.93216080000000 1.68888476000000 103.00000000000000 -535.32964470487707
1.93969849000000 1.68888476000000 103.00000000000000 -535.32910849226892
1.94723618000000 1.68888476000000 103.00000000000000 -535.32858511813151
1.95477387000000 1.68888476000000 103.00000000000000 -535.32807445909884
1.96231156000000 1.68888476000000 103.00000000000000 -535.32757637896577
1.96984925000000 1.68888476000000 103.00000000000000 -535.32709075161642
1.97738693000000 1.68888476000000 103.00000000000000 -535.32661745032431
1.98492462000000 1.68888476000000 103.00000000000000 -535.32615633516969
0.96446195000000 1.25628141000000 103.00000000000000 -535.27116855062923
0.96446195000000 1.26256281000000 103.00000000000000 -535.27993032243683
0.96446195000000 1.26884422000000 103.00000000000000 -535.28838690736336
0.96446195000000 1.28140704000000 103.00000000000000 -535.30442191841564
0.96446195000000 1.28768844000000 103.00000000000000 -535.31201829989084
0.96446195000000 1.29396985000000 103.00000000000000 -535.31934545019908
0.96446195000000 1.30025126000000 103.00000000000000 -535.32641164883796
0.96446195000000 1.31909548000000 103.00000000000000 -535.34612340502861
0.96446195000000 1.32537688000000 103.00000000000000 -535.35222344753947
0.96446195000000 1.33793970000000 103.00000000000000 -535.36376041969322
0.96446195000000 1.35050251000000 103.00000000000000 -535.37445767493989
0.96446195000000 1.36306533000000 103.00000000000000 -535.38436571220404
0.96446195000000 1.36934673000000 103.00000000000000 -535.38903869141404
0.96446195000000 1.37562814000000 103.00000000000000 -535.39353191432667
0.96446195000000 1.38190955000000 103.00000000000000 -535.39785084767436
0.96446195000000 1.38819095000000 103.00000000000000 -535.40200078969519
0.96446195000000 1.39447236000000 103.00000000000000 -535.40598689725141
0.96446195000000 1.40075377000000 103.00000000000000 -535.40981415040005
0.96446195000000 1.40703518000000 103.00000000000000 -535.41348737756653
0.96446195000000 1.41331658000000 103.00000000000000 -535.41701125781128
0.96446195000000 1.42587940000000 103.00000000000000 -535.42362903848016
0.96446195000000 1.43216080000000 103.00000000000000 -535.42673160199081
0.96446195000000 1.43844221000000 103.00000000000000 -535.42970218808125
0.96446195000000 1.44472362000000 103.00000000000000 -535.43254480882922
0.96446195000000 1.45728643000000 103.00000000000000 -535.43786161224864
0.96446195000000 1.46356784000000 103.00000000000000 -535.44034324393886
0.96446195000000 1.46984925000000 103.00000000000000 -535.44271180721375
0.96446195000000 1.47613065000000 103.00000000000000 -535.44497074722574
0.96446195000000 1.48241206000000 103.00000000000000 -535.44712341853210
0.96446195000000 1.48869347000000 103.00000000000000 -535.44917306988748
0.96446195000000 1.49497487000000 103.00000000000000 -535.45112326087747
0.96446195000000 1.50125628000000 103.00000000000000 -535.45297619979112
0.96446195000000 1.50753769000000 103.00000000000000 -535.45473529716037
0.96446195000000 1.51381910000000 103.00000000000000 -535.45640343522598
0.96446195000000 1.52010050000000 103.00000000000000 -535.45798341282352
0.96446195000000 1.52638191000000 103.00000000000000 -535.45947795163875
0.96446195000000 1.53266332000000 103.00000000000000 -535.46088968747154
0.96446195000000 1.53894472000000 103.00000000000000 -535.46222118130402
0.96446195000000 1.54522613000000 103.00000000000000 -535.46347492046266
0.96446195000000 1.55150754000000 103.00000000000000 -535.46465332210971
0.96446195000000 1.55778894000000 103.00000000000000 -535.46575873574238
0.96446195000000 1.56407035000000 103.00000000000000 -535.46679343228254
0.96446195000000 1.57035176000000 103.00000000000000 -535.46775963602317
0.96446195000000 1.57663317000000 103.00000000000000 -535.46865948721870
0.96446195000000 1.58291457000000 103.00000000000000 -535.46949507963598
0.96446195000000 1.58919598000000 103.00000000000000 -535.47026844368293
0.96446195000000 1.59547739000000 103.00000000000000 -535.47098154968148
0.96446195000000 1.60175879000000 103.00000000000000 -535.47163631022909
0.96446195000000 1.60804020000000 103.00000000000000 -535.47223459316820
0.96446195000000 1.61432161000000 103.00000000000000 -535.47277820677436
0.96446195000000 1.62060302000000 103.00000000000000 -535.47326890699583
0.96446195000000 1.62688442000000 103.00000000000000 -535.47370840616418
0.96446195000000 1.63316583000000 103.00000000000000 -535.47409836281599
0.96446195000000 1.63944724000000 103.00000000000000 -535.47444039577044
0.96446195000000 1.64572864000000 103.00000000000000 -535.47473607047175
0.96446195000000 1.65201005000000 103.00000000000000 -535.47498691967883
0.96446195000000 1.65829146000000 103.00000000000000 -535.47519442579755
0.96446195000000 1.66457286000000 103.00000000000000 -535.47536002600191
0.96446195000000 1.67085427000000 103.00000000000000 -535.47548513213258
0.96446195000000 1.67713568000000 103.00000000000000 -535.47557110470257
0.96446195000000 1.68341709000000 103.00000000000000 -535.47561927375000
0.96446195000000 1.68969849000000 103.00000000000000 -535.47563092995449
0.96446195000000 1.69597990000000 103.00000000000000 -535.47560732738339
0.96446195000000 1.70226131000000 103.00000000000000 -535.47554968949487
0.96446195000000 1.70854271000000 103.00000000000000 -535.47545920542007
0.96446195000000 1.71482412000000 103.00000000000000 -535.47533702907958
0.96446195000000 1.72110553000000 103.00000000000000 -535.47518428728165
0.96446195000000 1.72738693000000 103.00000000000000 -535.47500207433643
0.96446195000000 1.73366834000000 103.00000000000000 -535.47479145896239
0.96446195000000 1.73994975000000 103.00000000000000 -535.47455347116841
0.96446195000000 1.74623116000000 103.00000000000000 -535.47428912204009
0.96446195000000 1.75251256000000 103.00000000000000 -535.47399939490992
0.96446195000000 1.75879397000000 103.00000000000000 -535.47368524397893
0.96446195000000 1.76507538000000 103.00000000000000 -535.47334759555145
0.96446195000000 1.77135678000000 103.00000000000000 -535.47298735973447
0.96446195000000 1.77763819000000 103.00000000000000 -535.47260541361595
0.96446195000000 1.78391960000000 103.00000000000000 -535.47220261619100
0.96446195000000 1.79020101000000 103.00000000000000 -535.47177980045421
0.96446195000000 1.79648241000000 103.00000000000000 -535.47133777853287
0.96446195000000 1.80276382000000 103.00000000000000 -535.47087734104912
0.96446195000000 1.80904523000000 103.00000000000000 -535.47039925549359
0.96446195000000 1.81532663000000 103.00000000000000 -535.46990427729088
0.96446195000000 1.82160804000000 103.00000000000000 -535.46939312653740
0.96446195000000 1.82788945000000 103.00000000000000 -535.46886651652369
0.96446195000000 1.83417085000000 103.00000000000000 -535.46832514077823
0.96446195000000 1.84045226000000 103.00000000000000 -535.46776966890252
0.96446195000000 1.85301508000000 103.00000000000000 -535.46661903571407
0.96446195000000 1.85929648000000 103.00000000000000 -535.46602513471362
0.96446195000000 1.86557789000000 103.00000000000000 -535.46541965034396
0.96446195000000 1.87185930000000 103.00000000000000 -535.46480317342082
0.96446195000000 1.87814070000000 103.00000000000000 -535.46417627782387
0.96446195000000 1.88442211000000 103.00000000000000 -535.46353951541357
0.96446195000000 1.89070352000000 103.00000000000000 -535.46289343301896
0.96446195000000 1.89698492000000 103.00000000000000 -535.46223855264088
0.96446195000000 1.90326633000000 103.00000000000000 -535.46157539161663
0.96446195000000 1.91582915000000 103.00000000000000 -535.46022620704105
0.96446195000000 1.94095477000000 103.00000000000000 -535.45744955229827
0.96446195000000 1.94723618000000 103.00000000000000 -535.45674167718175
0.96446195000000 1.95351759000000 103.00000000000000 -535.45602915979100
0.96446195000000 1.95979899000000 103.00000000000000 -535.45531240274875
0.96446195000000 1.96608040000000 103.00000000000000 -535.45459179726777
0.96446195000000 1.97236181000000 103.00000000000000 -535.45386772124527
0.96446195000000 1.97864322000000 103.00000000000000 -535.45314054622304
0.96446195000000 1.98492462000000 103.00000000000000 -535.45241063372805
0.96446195000000 2.00376884000000 103.00000000000000 -535.45020790844467
0.96446195000000 2.01005025000000 103.00000000000000 -535.44947044138098
0.96446195000000 2.02889447000000 103.00000000000000 -535.44725274911661
0.96446195000000 2.03517588000000 103.00000000000000 -535.44651273793954
0.96446195000000 2.04773869000000 103.00000000000000 -535.44503323922527
0.96446195000000 2.05402010000000 103.00000000000000 -535.44429428459478
0.96446195000000 2.07286432000000 103.00000000000000 -535.44208364343262
0.96446195000000 2.08542714000000 103.00000000000000 -535.44061746711441
0.96446195000000 2.09798995000000 103.00000000000000 -535.43915946263758
0.96446195000000 2.10427136000000 103.00000000000000 -535.43843405511279
0.96446195000000 2.11055276000000 103.00000000000000 -535.43771131416190
0.96446195000000 2.19849246000000 103.00000000000000 -535.42797157114057
0.96446195000000 1.68888476000000  44.22110553000000 -535.33112445055372
0.96446195000000 1.68888476000000  45.62814070000000 -535.34095890249932
0.96446195000000 1.68888476000000  46.33165829000000 -535.34559691434447
0.96446195000000 1.68888476000000  47.03517588000000 -535.35006157827672
0.96446195000000 1.68888476000000  47.73869347000000 -535.35436193364978
0.96446195000000 1.68888476000000  48.44221106000000 -535.35850658644506
0.96446195000000 1.68888476000000  49.14572864000000 -535.36250369820846
0.96446195000000 1.68888476000000  49.84924623000000 -535.36636100037163
0.96446195000000 1.68888476000000  50.55276382000000 -535.37008580535291
0.96446195000000 1.68888476000000  51.25628141000000 -535.37368501102355
0.96446195000000 1.68888476000000  54.77386935000000 -535.39001091101272
0.96446195000000 1.68888476000000  55.47738693000000 -535.39297969998393
0.96446195000000 1.68888476000000  56.18090452000000 -535.39586063495813
0.96446195000000 1.68888476000000  56.88442211000000 -535.39865778398678
0.96446195000000 1.68888476000000  57.58793970000000 -535.40137491670805
0.96446195000000 1.68888476000000  58.29145729000000 -535.40401553854804
0.96446195000000 1.68888476000000  58.99497487000000 -535.40658289241924
0.96446195000000 1.68888476000000  59.69849246000000 -535.40907998418061
0.96446195000000 1.68888476000000  60.40201005000000 -535.41150959201570
0.96446195000000 1.68888476000000  61.10552764000000 -535.41387428083272
0.96446195000000 1.68888476000000  62.51256281000000 -535.41841818077512
0.96446195000000 1.68888476000000  63.91959799000000 -535.42272846415597
0.96446195000000 1.68888476000000  64.62311558000000 -535.42480053504380
0.96446195000000 1.68888476000000  65.32663316999999 -535.42681935043333
0.96446195000000 1.68888476000000  66.03015075000000 -535.42878635108855
0.96446195000000 1.68888476000000  66.73366833999999 -535.43070285341162
0.96446195000000 1.68888476000000  67.43718593000000 -535.43257006991371
0.96446195000000 1.68888476000000  68.14070352000000 -535.43438911571661
0.96446195000000 1.68888476000000  68.84422111000001 -535.43616101216708
0.96446195000000 1.68888476000000  69.54773869000000 -535.43788670071945
0.96446195000000 1.68888476000000  70.25125628000001 -535.43956704813093
0.96446195000000 1.68888476000000  70.95477387000000 -535.44120284951248
0.96446195000000 1.68888476000000  71.65829146000000 -535.44279484011588
0.96446195000000 1.68888476000000  72.36180905000001 -535.44434369727639
0.96446195000000 1.68888476000000  73.06532663000000 -535.44585005012561
0.96446195000000 1.68888476000000  73.76884422000001 -535.44731447309607
0.96446195000000 1.68888476000000  74.47236181000000 -535.44873751003297
0.96446195000000 1.68888476000000  75.17587940000000 -535.45011965653532
0.96446195000000 1.68888476000000  75.87939698000000 -535.45146138467044
0.96446195000000 1.68888476000000  76.58291457000000 -535.45276312804128
0.96446195000000 1.68888476000000  77.28643216000000 -535.45402529185742
0.96446195000000 1.68888476000000  77.98994974999999 -535.45524826835310
0.96446195000000 1.68888476000000  78.69346734000000 -535.45643242090011
0.96446195000000 1.68888476000000  79.39698491999999 -535.45757809278712
0.96446195000000 1.68888476000000  80.10050251000000 -535.45868561715497
0.96446195000000 1.68888476000000  80.80402010000000 -535.45975530615101
0.96446195000000 1.68888476000000  81.50753769000001 -535.46078746904732
0.96446195000000 1.68888476000000  82.21105528000000 -535.46178239684980
0.96446195000000 1.68888476000000  82.91457286000001 -535.46274037354976
0.96446195000000 1.68888476000000  83.61809045000000 -535.46366167968938
0.96446195000000 1.68888476000000  84.32160804000000 -535.46454658951120
0.96446195000000 1.68888476000000  85.02512563000001 -535.46539536437081
0.96446195000000 1.68888476000000  85.72864322000000 -535.46620827104994
0.96446195000000 1.68888476000000  86.43216080000001 -535.46698556874412
0.96446195000000 1.68888476000000  87.13567839000000 -535.46772751819003
0.96446195000000 1.68888476000000  87.83919598000000 -535.46843436894221
0.96446195000000 1.68888476000000  88.54271357000000 -535.46910638527470
0.96446195000000 1.68888476000000  89.24623115999999 -535.46974381513519
0.96446195000000 1.68888476000000  89.94974874000000 -535.47034691331805
0.96446195000000 1.68888476000000  90.65326632999999 -535.47091593295079
0.96446195000000 1.68888476000000  91.35678392000000 -535.47145113475256
0.96446195000000 1.68888476000000  92.06030151000000 -535.47195277106152
0.96446195000000 1.68888476000000  92.76381910000001 -535.47242109516253
0.96446195000000 1.68888476000000  93.46733668000000 -535.47285636898471
0.96446195000000 1.68888476000000  94.17085427000001 -535.47325885135308
0.96446195000000 1.68888476000000  94.87437186000000 -535.47362880243998
0.96446195000000 1.68888476000000  95.57788945000000 -535.47396648292772
0.96446195000000 1.68888476000000  96.28140704000000 -535.47427215840219
0.96446195000000 1.68888476000000  96.98492462000000 -535.47454609601743
0.96446195000000 1.68888476000000  97.68844221000001 -535.47478856053874
0.96446195000000 1.68888476000000  98.39195980000000 -535.47499982372938
0.96446195000000 1.68888476000000  99.09547739000000 -535.47518015861658
0.96446195000000 1.68888476000000  99.79899497000000 -535.47532983528640
0.96446195000000 1.68888476000000 100.50251256000000 -535.47544913208753
0.96446195000000 1.68888476000000 101.20603015000000 -535.47553832441167
0.96446195000000 1.68888476000000 101.90954773999999 -535.47559769179429
0.96446195000000 1.68888476000000 102.61306533000000 -535.47562751848602
0.96446195000000 1.68888476000000 103.31658290999999 -535.47562808644750
0.96446195000000 1.68888476000000 104.02010050000000 -535.47559967940413
0.96446195000000 1.68888476000000 104.72361809000000 -535.47554258921218
0.96446195000000 1.68888476000000 105.42713568000001 -535.47545710266741
0.96446195000000 1.68888476000000 106.13065327000000 -535.47534351017555
0.96446195000000 1.68888476000000 106.83417085000001 -535.47520210811024
0.96446195000000 1.68888476000000 107.53768844000000 -535.47503319054840
0.96446195000000 1.68888476000000 108.24120603000000 -535.47483705761204
0.96446195000000 1.68888476000000 108.94472362000000 -535.47461400484337
0.96446195000000 1.68888476000000 109.64824120999999 -535.47436433902828
0.96446195000000 1.68888476000000 110.35175879000001 -535.47408836031116
0.96446195000000 1.68888476000000 111.05527638000000 -535.47378638061684
0.96446195000000 1.68888476000000 111.75879397000000 -535.47345870179038
0.96446195000000 1.68888476000000 112.46231156000000 -535.47310564008296
0.96446195000000 1.68888476000000 113.16582914999999 -535.47272750623029
0.96446195000000 1.68888476000000 113.86934673000000 -535.47232461925478
0.96446195000000 1.68888476000000 114.57286431999999 -535.47189729524769
0.96446195000000 1.68888476000000 118.79396985000000 -535.46883842843022
0.96446195000000 1.68888476000000 119.49748744000000 -535.46824923351960
0.96446195000000 1.68888476000000 120.20100503000000 -535.46763826863855
0.96446195000000 1.68888476000000 120.90452261000000 -535.46700587995929
0.96446195000000 1.68888476000000 121.60804020000000 -535.46635242459956
0.96446195000000 1.68888476000000 122.31155778999999 -535.46567825935051
0.96446195000000 1.68888476000000 123.01507538000000 -535.46498374709290
0.96446195000000 1.68888476000000 123.71859296000000 -535.46426925906235
0.96446195000000 1.68888476000000 124.42211055000000 -535.46353517008572
0.96446195000000 1.68888476000000 125.12562814000000 -535.46278185714345
0.96446195000000 1.68888476000000 125.82914572999999 -535.46200971094322
0.96446195000000 1.68888476000000 126.53266332000000 -535.46121912001001
0.96446195000000 1.68888476000000 127.23618089999999 -535.46041048642303
0.96446195000000 1.68888476000000 127.93969849000000 -535.45958421707758
0.96446195000000 1.68888476000000 128.64321608000000 -535.45874072399499
0.96446195000000 1.68888476000000 129.34673366999999 -535.45788042482400
0.96446195000000 1.68888476000000 130.05025126000001 -535.45700375660999
0.96446195000000 1.68888476000000 130.75376883999999 -535.45611114803546
0.96446195000000 1.68888476000000 131.45728643000001 -535.45520305034836
0.96446195000000 1.68888476000000 132.16080402000000 -535.45427991580709
0.96446195000000 1.68888476000000 132.86432160999999 -535.45334221447024
0.96446195000000 1.68888476000000 133.56783920000001 -535.45239041195168
0.96446195000000 1.68888476000000 134.27135677999999 -535.45142499651172
0.96446195000000 1.68888476000000 134.97487437000001 -535.45044646514884
0.96446195000000 1.68888476000000 135.67839196000000 -535.44945532173119
0.96446195000000 1.68888476000000 136.38190954999999 -535.44845208428274
0.96446195000000 1.68888476000000 137.08542714000001 -535.44743728154731
0.96446195000000 1.68888476000000 137.78894471999999 -535.44641145826245
0.96446195000000 1.68888476000000 138.49246231000001 -535.44537516829098
0.96446195000000 1.68888476000000 139.19597990000000 -535.44432898039850
0.96446195000000 1.68888476000000 139.89949748999999 -535.44327347902947
0.96446195000000 1.68888476000000 140.60301508000001 -535.44220926234414
0.96446195000000 1.68888476000000 141.30653265999999 -535.44113694117664
0.96446195000000 1.68888476000000 142.01005025000001 -535.44005714876891
0.96446195000000 1.68888476000000 142.71356784000000 -535.43897052745513
0.96446195000000 1.68888476000000 143.41708542999999 -535.43787773923441
0.96446195000000 1.68888476000000 144.12060302000000 -535.43677946770549
0.96446195000000 1.68888476000000 144.82412059999999 -535.43567641056097
0.96446195000000 1.68888476000000 145.52763819000000 -535.43456928629507
0.96446195000000 1.68888476000000 146.23115577999999 -535.43345883340203
0.96446195000000 1.68888476000000 146.93467337000001 -535.43234580864873
0.96446195000000 1.68888476000000 147.63819094999999 -535.43123099393210
0.96446195000000 1.68888476000000 148.34170854000001 -535.43011518902620
0.96446195000000 1.68888476000000 149.04522613000000 -535.42899921890580
0.96446195000000 1.68888476000000 149.74874371999999 -535.42788392973330
0.96446195000000 1.68888476000000 150.45226131000001 -535.42677019412679
0.96446195000000 1.68888476000000 151.15577888999999 -535.42565890594892
0.96446195000000 1.68888476000000 151.85929648000001 -535.42455098625874
0.96446195000000 1.68888476000000 152.56281407000000 -535.42344738234056
0.96446195000000 1.68888476000000 153.26633165999999 -535.42234906352860
0.96446195000000 1.68888476000000 156.78391959999999 -535.41697266865037
0.96446195000000 1.68888476000000 157.48743719000001 -535.41592798623276
0.96446195000000 1.68888476000000 158.19095476999999 -535.41489614841805
0.96446195000000 1.68888476000000 158.89447236000001 -535.41387834234058
0.96446195000000 1.68888476000000 159.59798995000000 -535.41287578372805
0.96446195000000 1.68888476000000 160.30150753999999 -535.41188970556732
0.96446195000000 1.68888476000000 161.00502513000001 -535.41092137107273
0.96446195000000 1.68888476000000 161.70854270999999 -535.40997206283396
0.96446195000000 1.68888476000000 162.41206030000001 -535.40904308266920
0.96446195000000 1.68888476000000 163.11557789000000 -535.40813575596894
0.96446195000000 1.68888476000000 163.81909547999999 -535.40725141564974
0.96446195000000 1.68888476000000 164.52261307000001 -535.40639140694168
0.96446195000000 1.68888476000000 165.22613064999999 -535.40555709368175
0.96446195000000 1.68888476000000 165.92964824000001 -535.40474983489992
0.96446195000000 1.68888476000000 166.63316583000000 -535.40397099496920
0.96446195000000 1.68888476000000 167.33668342000001 -535.40322193454790
0.96446195000000 1.68888476000000 168.04020101000000 -535.40250400141019
0.96446195000000 1.68888476000000 168.74371858999999 -535.40181853221600
0.96446195000000 1.68888476000000 169.44723618000000 -535.40116684157772
0.96446195000000 1.68888476000000 170.15075376999999 -535.40055021390685
0.96446195000000 1.68888476000000 171.55778893999999 -535.39942712142681
0.96446195000000 1.68888476000000 172.26130653000001 -535.39892302679618
0.96446195000000 1.68888476000000 172.96482412000000 -535.39845872563080
0.96446195000000 1.68888476000000 173.66834170999999 -535.39803526265280
0.96446195000000 1.68888476000000 174.37185930000001 -535.39765360320598
0.96446195000000 1.68888476000000 175.07537687999999 -535.39731464005285
0.96446195000000 1.68888476000000 175.77889447000001 -535.39701917670573
0.96446195000000 1.68888476000000 176.48241206000000 -535.39676792412718
0.96446195000000 1.68888476000000 177.18592964999999 -535.39656149927009
0.96446195000000 1.68888476000000 177.88944724000001 -535.39640041053747
0.96446195000000 1.68888476000000 178.59296481999999 -535.39628505532130
0.96446195000000 1.68888476000000 179.29648241000001 -535.39621572603380
end