structural
morse    2
rOHe    0   0   0    0          0.96446195
rOCle   0   0   0    0          1.68888476
alphae  0   0   0    0          103.000000
am1     0   0   0    0          1.00000000
am2     0   0   0    0          2.00000000
end

linear
f    0   0   0    1     0.00000
f    0   1   0    1     0.00000
f    0   2   0    1     0.00000
f    0   3   0    1     0.00000
f    0   4   0    1     0.00000
f    0   5   0    1     0.00000
f    0   6   0    1     0.00000
f    0   7   0    1     0.00000
f    0   8   0    1     0.00000
end

grid
0.96446195000000 1.68888476000000 103.00000000000000 -535.47563143287516
0.96446195000000 1.25628141000000 103.00000000000000 -535.27116855062923
0.96446195000000 1.26256281000000 103.00000000000000 -535.27993032243683
0.96446195000000 1.26884422000000 103.00000000000000 -535.28838690736336
0.96446195000000 1.28140704000000 103.00000000000000 -535.30442191841564
0.96446195000000 1.28768844000000 103.00000000000000 -535.31201829989084
0.96446195000000 1.29396985000000 103.00000000000000 -535.31934545019908
0.96446195000000 1.30025126000000 103.00000000000000 -535.32641164883796
0.96446195000000 1.31909548000000 103.00000000000000 -535.34612340502861
0.96446195000000 1.32537688000000 103.00000000000000 -535.35222344753947
0.96446195000000 1.33793970000000 103.00000000000000 -535.36376041969322
0.96446195000000 1.35050251000000 103.00000000000000 -535.37445767493989
0.96446195000000 1.36306533000000 103.00000000000000 -535.38436571220404
0.96446195000000 1.36934673000000 103.00000000000000 -535.38903869141404
0.96446195000000 1.37562814000000 103.00000000000000 -535.39353191432667
0.96446195000000 1.38190955000000 103.00000000000000 -535.39785084767436
0.96446195000000 1.38819095000000 103.00000000000000 -535.40200078969519
0.96446195000000 1.39447236000000 103.00000000000000 -535.40598689725141
0.96446195000000 1.40075377000000 103.00000000000000 -535.40981415040005
0.96446195000000 1.40703518000000 103.00000000000000 -535.41348737756653
0.96446195000000 1.41331658000000 103.00000000000000 -535.41701125781128
0.96446195000000 1.42587940000000 103.00000000000000 -535.42362903848016
0.96446195000000 1.43216080000000 103.00000000000000 -535.42673160199081
0.96446195000000 1.43844221000000 103.00000000000000 -535.42970218808125
0.96446195000000 1.44472362000000 103.00000000000000 -535.43254480882922
0.96446195000000 1.45728643000000 103.00000000000000 -535.43786161224864
0.96446195000000 1.46356784000000 103.00000000000000 -535.44034324393886
0.96446195000000 1.46984925000000 103.00000000000000 -535.44271180721375
0.96446195000000 1.47613065000000 103.00000000000000 -535.44497074722574
0.96446195000000 1.48241206000000 103.00000000000000 -535.44712341853210
0.96446195000000 1.48869347000000 103.00000000000000 -535.44917306988748
0.96446195000000 1.49497487000000 103.00000000000000 -535.45112326087747
0.96446195000000 1.50125628000000 103.00000000000000 -535.45297619979112
0.96446195000000 1.50753769000000 103.00000000000000 -535.45473529716037
0.96446195000000 1.51381910000000 103.00000000000000 -535.45640343522598
0.96446195000000 1.52010050000000 103.00000000000000 -535.45798341282352
0.96446195000000 1.52638191000000 103.00000000000000 -535.45947795163875
0.96446195000000 1.53266332000000 103.00000000000000 -535.46088968747154
0.96446195000000 1.53894472000000 103.00000000000000 -535.46222118130402
0.96446195000000 1.54522613000000 103.00000000000000 -535.46347492046266
0.96446195000000 1.55150754000000 103.00000000000000 -535.46465332210971
0.96446195000000 1.55778894000000 103.00000000000000 -535.46575873574238
0.96446195000000 1.56407035000000 103.00000000000000 -535.46679343228254
0.96446195000000 1.57035176000000 103.00000000000000 -535.46775963602317
0.96446195000000 1.57663317000000 103.00000000000000 -535.46865948721870
0.96446195000000 1.58291457000000 103.00000000000000 -535.46949507963598
0.96446195000000 1.58919598000000 103.00000000000000 -535.47026844368293
0.96446195000000 1.59547739000000 103.00000000000000 -535.47098154968148
0.96446195000000 1.60175879000000 103.00000000000000 -535.47163631022909
0.96446195000000 1.60804020000000 103.00000000000000 -535.47223459316820
0.96446195000000 1.61432161000000 103.00000000000000 -535.47277820677436
0.96446195000000 1.62060302000000 103.00000000000000 -535.47326890699583
0.96446195000000 1.62688442000000 103.00000000000000 -535.47370840616418
0.96446195000000 1.63316583000000 103.00000000000000 -535.47409836281599
0.96446195000000 1.63944724000000 103.00000000000000 -535.47444039577044
0.96446195000000 1.64572864000000 103.00000000000000 -535.47473607047175
0.96446195000000 1.65201005000000 103.00000000000000 -535.47498691967883
0.96446195000000 1.65829146000000 103.00000000000000 -535.47519442579755
0.96446195000000 1.66457286000000 103.00000000000000 -535.47536002600191
0.96446195000000 1.67085427000000 103.00000000000000 -535.47548513213258
0.96446195000000 1.67713568000000 103.00000000000000 -535.47557110470257
0.96446195000000 1.68341709000000 103.00000000000000 -535.47561927375000
0.96446195000000 1.68969849000000 103.00000000000000 -535.47563092995449
0.96446195000000 1.69597990000000 103.00000000000000 -535.47560732738339
0.96446195000000 1.70226131000000 103.00000000000000 -535.47554968949487
0.96446195000000 1.70854271000000 103.00000000000000 -535.47545920542007
0.96446195000000 1.71482412000000 103.00000000000000 -535.47533702907958
0.96446195000000 1.72110553000000 103.00000000000000 -535.47518428728165
0.96446195000000 1.72738693000000 103.00000000000000 -535.47500207433643
0.96446195000000 1.73366834000000 103.00000000000000 -535.47479145896239
0.96446195000000 1.73994975000000 103.00000000000000 -535.47455347116841
0.96446195000000 1.74623116000000 103.00000000000000 -535.47428912204009
0.96446195000000 1.75251256000000 103.00000000000000 -535.47399939490992
0.96446195000000 1.75879397000000 103.00000000000000 -535.47368524397893
0.96446195000000 1.76507538000000 103.00000000000000 -535.47334759555145
0.96446195000000 1.77135678000000 103.00000000000000 -535.47298735973447
0.96446195000000 1.77763819000000 103.00000000000000 -535.47260541361595
0.96446195000000 1.78391960000000 103.00000000000000 -535.47220261619100
0.96446195000000 1.79020101000000 103.00000000000000 -535.47177980045421
0.96446195000000 1.79648241000000 103.00000000000000 -535.47133777853287
0.96446195000000 1.80276382000000 103.00000000000000 -535.47087734104912
0.96446195000000 1.80904523000000 103.00000000000000 -535.47039925549359
0.96446195000000 1.81532663000000 103.00000000000000 -535.46990427729088
0.96446195000000 1.82160804000000 103.00000000000000 -535.46939312653740
0.96446195000000 1.82788945000000 103.00000000000000 -535.46886651652369
0.96446195000000 1.83417085000000 103.00000000000000 -535.46832514077823
0.96446195000000 1.84045226000000 103.00000000000000 -535.46776966890252
0.96446195000000 1.85301508000000 103.00000000000000 -535.46661903571407
0.96446195000000 1.85929648000000 103.00000000000000 -535.46602513471362
0.96446195000000 1.86557789000000 103.00000000000000 -535.46541965034396
0.96446195000000 1.87185930000000 103.00000000000000 -535.46480317342082
0.96446195000000 1.87814070000000 103.00000000000000 -535.46417627782387
0.96446195000000 1.88442211000000 103.00000000000000 -535.46353951541357
0.96446195000000 1.89070352000000 103.00000000000000 -535.46289343301896
0.96446195000000 1.89698492000000 103.00000000000000 -535.46223855264088
0.96446195000000 1.90326633000000 103.00000000000000 -535.46157539161663
0.96446195000000 1.91582915000000 103.00000000000000 -535.46022620704105
0.96446195000000 1.94095477000000 103.00000000000000 -535.45744955229827
0.96446195000000 1.94723618000000 103.00000000000000 -535.45674167718175
0.96446195000000 1.95351759000000 103.00000000000000 -535.45602915979100
0.96446195000000 1.95979899000000 103.00000000000000 -535.45531240274875
0.96446195000000 1.96608040000000 103.00000000000000 -535.45459179726777
0.96446195000000 1.97236181000000 103.00000000000000 -535.45386772124527
0.96446195000000 1.97864322000000 103.00000000000000 -535.45314054622304
0.96446195000000 1.98492462000000 103.00000000000000 -535.45241063372805
0.96446195000000 2.00376884000000 103.00000000000000 -535.45020790844467
0.96446195000000 2.01005025000000 103.00000000000000 -535.44947044138098
0.96446195000000 2.02889447000000 103.00000000000000 -535.44725274911661
0.96446195000000 2.03517588000000 103.00000000000000 -535.44651273793954
0.96446195000000 2.04773869000000 103.00000000000000 -535.44503323922527
0.96446195000000 2.05402010000000 103.00000000000000 -535.44429428459478
0.96446195000000 2.07286432000000 103.00000000000000 -535.44208364343262
0.96446195000000 2.08542714000000 103.00000000000000 -535.44061746711441
0.96446195000000 2.09798995000000 103.00000000000000 -535.43915946263758
0.96446195000000 2.10427136000000 103.00000000000000 -535.43843405511279
0.96446195000000 2.11055276000000 103.00000000000000 -535.43771131416190
0.96446195000000 2.19849246000000 103.00000000000000 -535.42797157114057
end