    0   1      1             0    0    0    0    0      800000.00000       8
    0   1      2   724.3581502    0    0    1    0          17.67765       1
    0   1      3   1238.624735    0    0    0    1          50.00000       2
    0   1      7   2461.223988    0    0    0    2          19.60784       1
    0   1     13   3609.479738    0    1    0    0           3.33333       1
    0   1     18   4331.908979    0    1    1    0          12.72467       1
    0   1     35   6013.836098    0    1    0    2           2.94118       1
    0   1    128   10322.28954    0    3    0    0           3.33333       1
    0   1    168   11478.00144    0    3    0    1           5.00000       1
    0   1    217   12612.51644    0    3    0    2           2.00000       1
    0   1    257   13427.39744    0    4    0    0          15.00000       3
    1   1      1   20.96340179    1    0    0    0     1100000.00000      22
    1   1      2   745.2871118    1    0    1    0          33.33333       2
    1   1      3   1260.349094    1    0    0    1          67.08198       3
    1   1      7   2483.805279    1    0    0    2          36.50874       2
    1   1     22   4841.308839    1    1    0    1           8.94427       1
    1   1    127   10340.92093    1    3    0    0           1.66574       1
    1   1    168   11497.24713    1    3    0    1           4.97519       1
    1   1    216   12632.44713    1    3    0    2           1.99840       1
    1   1    257    13445.2802    1    4    0    0           9.90148       2
    1   2      1    0.99543755    0    0    0    0   778443113.77246      26
    1   2      2   20.95043866    1    0    0    0     1100000.00000      22
    1   2      3   725.3444107    0    0    1    0          35.35530       2
    1   2      4   745.2741502    1    0    1    0          37.79647       2
    1   2      5   1239.616981    0    0    0    1         100.00000       4
    1   2      6   1260.334678    1    0    0    1          67.08198       3
    1   2     13   2462.212677    0    0    0    2          58.82353       3
    1   2     14   2483.789347    1    0    0    2          17.14734       1
    1   2     35   4332.893013    0    1    1    0          12.72467       1
    1   2     43   4821.422354    0    1    0    1           9.09091       1
    1   2     44   4841.295422    1    1    0    1           8.94427       1
    1   2     69   6014.819602    0    1    0    2           5.88235       2
    1   2     70   6035.552623    1    1    0    2           2.93610       1
    1   2    253   10323.29129    0    3    0    0           6.66667       2
    1   2    255   10340.88188    1    3    0    0           1.66574       1
    1   2    334   11478.99428    0    3    0    1           5.00000       1
    1   2    337   11497.22708    1    3    0    1           4.97519       1
    1   2    432   12613.53764    0    3    0    2           4.99251       2
    1   2    436   12632.40808    1    3    0    2           4.97519       1
    1   2    512   13428.37728    0    4    0    0          10.00000       2
    1   2    515    13445.2674    1    4    0    0           4.97519       1
    2   1      1     2.9862843    0    0    0    0   550847457.62712      26
    2   1      2   22.92808276    1    0    0    0     1850000.00000      37
    2   1      3   82.77966663    2    0    0    0     1060659.09356      30
    2   1      4   727.3169402    0    0    1    0          40.82474       2
    2   1      5   747.2334095    1    0    1    0          75.59293       4
    2   1      6   807.0092502    2    0    1    0         122.47447       6
    2   1      7   1241.602227    0    0    0    1          75.00000       3
    2   1      8   1262.305546    1    0    0    1          89.44264       4
    2   1      9   1324.429971    2    0    0    1          61.23724       3
    2   1     19   2464.191987    0    0    0    2          98.03922       5
    2   1     20   2485.753574    1    0    0    2          98.03922       5
    2   1     21   2550.435059    2    0    0    2          73.01748       4
    2   1     52    4334.86195    0    1    1    0          12.72467       1
    2   1     53   4353.986499    1    1    1    0          12.33160       1
    2   1     63   4823.402846    0    1    0    1          18.18182       2
    2   1     65   4843.264304    1    1    0    1          36.36364       4
    2   1     68   4902.851183    2    1    0    1          35.77709       4
    2   1    103   6016.794074    0    1    0    2           2.94118       1
    2   1    104   6037.519613    1    1    0    2           5.87220       2
    2   1    108   6099.594779    2    1    0    2           1.46932       1
    2   1    149    7071.15831    1    2    0    0          47.61897       3
    2   1    152   7126.300489    2    2    0    0          45.38688       3
    2   1    377   10325.26661    0    3    0    0           6.66667       2
    2   1    379   10342.87944    1    3    0    0           1.66574       1
    2   1    384   10395.73704    2    3    0    0           3.32964       2
    2   1    497   11480.96896    0    3    0    1          10.00000       2
    2   1    502   11499.17495    1    3    0    1           1.73434       2
    2   1    646   12615.51096    0    3    0    2           7.33945       2
    2   1    649   12634.36337    1    3    0    2           9.95037       2
    2   1    659   12690.93992    2    3    0    2           4.95074       1
    2   1    764   13430.36917    0    4    0    0          20.00000       4
    2   1    768   13447.24142    1    4    0    0           9.95037       2
    2   1    777    13497.8888    2    4    0    0          14.85221       3
    2   2      1   22.96713017    1    0    0    0     2049989.75005      41
    2   2      2   82.77970708    2    0    0    0     1166725.00292      33
    2   2      3   747.2724504    1    0    1    0          89.44244       4
    2   2      4    807.009213    2    0    1    0          70.71061       4
    2   2      5   1262.348084    1    0    0    1         111.80305       5
    2   2      6    1324.42981    2    0    0    1          19.24502       2
    2   2     13   2485.800403    1    0    0    2          54.76311       3
    2   2     14   2550.435901    2    0    0    2          54.76311       3
    2   2     35   4354.026393    1    1    1    0          12.33158       1
    2   2     43   4843.307222    1    1    0    1          17.73193       3
    2   2     45   4902.851278    2    1    0    1          35.77706       4
    2   2     69   6037.572938    1    1    0    2           5.87220       2
    2   2     71   6099.594793    2    1    0    2           1.46932       1
    2   2     99   7071.199309    1    2    0    0          30.25787       2
    2   2    101   7126.299208    2    2    0    0          12.09091       2
    2   2    251    10342.8924    1    3    0    0           1.66574       1
    2   2    255   10395.73704    2    3    0    0           3.32964       2
    2   2    333   11499.24004    1    3    0    1           6.87313       2
    2   2    429   12634.40917    1    3    0    2           9.95037       2
    2   2    437   12690.93993    2    3    0    2           4.95074       1
    2   2    510   13447.27771    1    4    0    0          19.80295       4
    2   2    515   13497.90042    2    4    0    0          14.92556       3
    3   1      1   25.97268471    1    0    0    0     2449963.25055      49
    3   1      2    85.7649325    2    0    0    0     1555633.33722      44
    3   1      3   185.3125538    3    0    0    0     1010363.44216      35
    3   1      4   750.2504209    1    0    1    0          89.44244       4
    3   1      5   809.9669521    2    0    1    0         122.47422       6
    3   1      6   909.3885153    3    0    1    0          94.49117       5
    3   1      7   1265.346629    1    0    0    1         156.52462       7
    3   1      8   1327.406125    2    0    0    1          28.86750       3
    3   1      9   1430.679626    3    0    0    1          18.89822       2
    3   1     19   2488.792467    1    0    0    2          54.76311       3
    3   1     20   2553.402445    2    0    0    2          54.76311       3
    3   1     21    2660.85102    3    0    0    2          37.78968       4
    3   1     35    3634.65027    1    1    0    0          13.21637       2
    3   1     41   3787.640441    3    1    0    0          13.10243       2
    3   1     51   4357.000549    1    1    1    0          12.33158       1
    3   1     53   4414.340272    2    1    1    0          38.17401       3
    3   1     56   4509.804483    3    1    1    0          12.93584       2
    3   1     63   4846.300154    1    1    0    1          26.83282       3
    3   1     65   4905.821581    2    1    0    1          44.72136       5
    3   1     70   5004.858421    3    1    0    1          13.52505       3
    3   1    102   6040.560737    1    1    0    2           5.87220       2
    3   1    104   6102.554158    2    1    0    2           2.93864       2
    3   1    109   6205.489981    3    1    0    2           1.46868       1
    3   1    146   7074.197481    1    2    0    0          30.25787       2
    3   1    148   7129.272957    2    2    0    0          45.38688       3
    3   1    153   7220.981684    3    2    0    0          41.72705       3
    3   1    372    10345.9157    1    3    0    0           9.97785       3
    3   1    377   10398.71618    2    3    0    0           4.99445       3
    3   1    388   10486.63705    3    3    0    0           3.32964       2
    3   1    493   11502.22204    1    3    0    1           9.95037       2
    3   1    637   12637.38613    1    3    0    2           4.97519       1
    3   1    647   12693.93071    2    3    0    2           1.99681       1
    3   1    661   12787.92191    3    3    0    2           9.85329       2
    3   1    758   13450.27325    1    4    0    0          19.90075       4
    3   1    767   13500.86292    2    4    0    0           9.95037       2
    3   1    782   13585.14035    3    4    0    0           9.90148       2
    3   2      1   5.972483503    0    0    0    0   307414104.88246      34
    3   2      2     25.894467    1    0    0    0     2099989.50005      42
    3   2      3   85.76491886    2    0    0    0     1626343.94346      46
    3   2      4   185.3125699    3    0    0    0      981495.91524      34
    3   2      5   730.2756161    0    0    1    0          61.23699       3
    3   2      6     750.17243    1    0    1    0          75.59293       4
    3   2      7   809.9669983    2    0    1    0         142.88689       7
    3   2      8   909.3885469    3    0    1    0          94.49117       5
    3   2      9   1244.579584    0    0    0    1          20.00000       2
    3   2     10   1265.260841    1    0    0    1         134.16396       6
    3   2     11   1327.406206    2    0    0    1         102.06206       5
    3   2     12   1430.679625    3    0    0    1          18.89822       2
    3   2     25   2467.160749    0    0    0    2          98.03922       5
    3   2     26   2488.698976    1    0    0    2         117.64660       6
    3   2     27   2553.402989    2    0    0    2          73.01748       4
    3   2     28   2660.851009    3    0    0    2          37.78972       4
    3   2     47   3615.443954    0    1    0    0           6.66666       1
    3   2     48   3634.569159    1    1    0    0          13.33332       2
    3   2     68   4337.814769    0    1    1    0          25.44931       2
    3   2     69   4356.921776    1    1    1    0          39.47363       3
    3   2     72   4414.340714    2    1    1    0          38.17401       3
    3   2     75    4509.80447    3    1    1    0          12.93584       2
    3   2     83   4826.375174    0    1    0    1          18.18182       2
    3   2     85   4846.210994    1    1    0    1          35.77709       4
    3   2     88   4905.821739    2    1    0    1          44.72136       5
    3   2     94   5004.858401    3    1    0    1          13.52505       3
    3   2    136   6019.752894    0    1    0    2           5.88235       2
    3   2    137   6040.461888    1    1    0    2           5.87220       2
    3   2    141   6102.554162    2    1    0    2           2.93864       2
    3   2    146   6205.489997    3    1    0    2           1.46868       1
    3   2    195   7055.767846    0    2    0    0          63.49206       4
    3   2    196   7074.114725    1    2    0    0          30.25787       2
    3   2    199   7129.273336    2    2    0    0          60.51575       4
    3   2    207   7220.981335    3    2    0    0          41.72705       3
    3   2    497   10328.24252    0    3    0    0           6.66667       2
    3   2    500   10345.82907    1    3    0    0          13.30380       4
    3   2    506   10398.71619    2    3    0    0           4.99445       3
    3   2    522   10486.63703    3    3    0    0           3.32964       2
    3   2    657   11483.93262    0    3    0    1          10.00000       2
    3   2    662   11502.12783    1    3    0    1           5.57790       2
    3   2    852    12618.4702    0    3    0    2          10.00000       2
    3   2    857   12637.28733    1    3    0    2           4.83695       2
    3   2    869   12693.93067    2    3    0    2           1.99681       1
    3   2    886   12787.91384    3    3    0    2           2.19308       2
    3   2   1011   13433.32895    0    4    0    0           4.00000       2
    3   2   1016    13450.1844    1    4    0    0           8.18228       3
    3   2   1029   13500.86374    2    4    0    0          34.82630       7
    3   2   1048   13585.14033    3    4    0    0           9.90148       2
    3   2   1839   16506.47455    3    5    0    0           4.92665       1
    4   1      1    9.95395353    0    0    0    0   270897832.81734      35
    4   1      2    29.8495736    1    0    0    0     2349976.50024      47
    4   1      3   89.74517723    2    0    0    0     2050607.58088      58
    4   1      4   189.2911268    3    0    0    0     1212436.13060      42
    4   1      5    328.300994    4    0    0    0      825000.00000      33
    4   1      6    734.220483    0    0    1    0          61.23711       3
    4   1      7   754.0910179    1    0    1    0          94.49117       5
    4   1      8   813.9106445    2    0    1    0         183.71171       9
    4   1      9   913.3304706    3    0    1    0         113.38940       6
    4   1     10   1052.164466    4    0    1    0          88.38826       5
    4   1     11   1248.549363    0    0    0    1          29.99997       3
    4   1     12   1269.201574    1    0    0    1         156.52462       7
    4   1     13   1331.374619    2    0    0    1         102.06206       5
    4   1     14   1434.646103    3    0    0    1          28.34732       3
    4   1     18    1578.75222    4    0    0    1          53.03295       3
    4   1     30   2471.120314    0    0    0    2          78.43122       4
    4   1     32   2492.625628    1    0    0    2          98.03902       5
    4   1     33   2557.359949    2    0    0    2         146.03497       8
    4   1     34   2664.805511    3    0    0    2          47.23710       5
    4   1     38   2814.588526    4    0    0    2          37.13265       4
    4   1     57   3619.418145    0    1    0    0          13.33332       2
    4   1     58   3638.515452    1    1    0    0           9.97785       3
    4   1     61   3696.033169    2    1    0    0           6.49570       1
    4   1     71   3925.093675    4    1    0    0           6.08954       2
    4   1     83   4341.754268    0    1    1    0          38.17396       3
    4   1     84   4360.831797    1    1    1    0          26.31575       2
    4   1     88   4418.278299    2    1    1    0          50.89868       4
    4   1     91   4513.740265    3    1    1    0          25.87168       4
    4   1     96   4647.046094    4    1    1    0          19.24343       3
    4   1    102   4830.338217    0    1    0    1          18.18180       2
    4   1    104   4850.144755    1    1    0    1          54.54540       6
    4   1    107   4909.784056    2    1    0    1          53.66563       6
    4   1    114   5008.818579    3    1    0    1          27.05009       6
    4   1    123   5147.003535    4    1    0    1          22.45066       5
    4   1    167   6023.706632    0    1    0    2           5.88235       2
    4   1    168   6044.380391    1    1    0    2           5.87220       2
    4   1    173   6106.504139    2    1    0    2           2.93864       2
    4   1    179   6209.436195    3    1    0    2           2.93737       2
    4   1    238   7059.737717    0    2    0    0          31.74598       2
    4   1    241   7078.055928    1    2    0    0          95.23779       6
    4   1    245   7133.241926    2    2    0    0          90.77376       6
    4   1    254   7224.948483    3    2    0    0          30.61025       4
    4   1    267    7353.01647    4    2    0    0          15.30512       2
    4   1    614   10332.20892    0    3    0    0          16.66667       5
    4   1    617   10349.76679    1    3    0    0          13.30380       4
    4   1    624    10402.6825    2    3    0    0          13.30380       4
    4   1    643   10490.60344    3    3    0    0           8.32409       5
    4   1    661    10613.3878    4    3    0    0           4.99169       3
    4   1    812   11487.88503    0    3    0    1          10.00000       2
    4   1    817   11506.04438    1    3    0    1           3.56979       2
    4   1    830   11561.21314    2    3    0    1           3.99362       2
    4   1    846   11651.49715    3    3    0    1          32.87981       2
    4   1   1053   12622.40603    0    3    0    2           7.13267       2
    4   1   1058   12641.18908    1    3    0    2          14.92556       3
    4   1   1071   12697.83017    2    3    0    2           9.90148       2
    4   1   1093   12791.85099    3    3    0    2          14.77994       3
    4   1   1249   13437.28948    0    4    0    0           4.00000       2
    4   1   1256   13454.11579    1    4    0    0          10.59263       3
    4   1   1271   13504.82474    2    4    0    0          34.65516       7
    4   1   1294    13589.0956    3    4    0    0          24.63324       5
    4   1   1325   13706.79928    4    4    0    0           3.99043       2
    4   2      1   29.97995327    1    0    0    0     2449951.00098      49
    4   2      2   89.74512904    2    0    0    0     2015245.15281      57
    4   2      3   189.2911112    3    0    0    0     1154701.07676      40
    4   2      4   328.3009945    4    0    0    0      725000.00000      29
    4   2      5   754.2209573    1    0    1    0         111.80255       5
    4   2      6   813.9105403    2    0    1    0         122.47397       6
    4   2      7   913.3304691    3    0    1    0         151.18586       8
    4   2      8   1052.164451    4    0    1    0          88.38826       5
    4   2      9   1269.344606    1    0    0    1         156.52427       7
    4   2     10   1331.374419    2    0    0    1          28.86750       3
    4   2     11   1434.646139    3    0    0    1          75.59279       4
    4   2     14   1578.752139    4    0    0    1          18.56953       2
    4   2     25   2492.781887    1    0    0    2          54.76301       3
    4   2     26   2557.359996    2    0    0    2         109.52603       6
    4   2     27   2664.805484    3    0    0    2          47.23710       5
    4   2     30   2814.588524    4    0    0    2          37.13265       4
    4   2     45   3638.651087    1    1    0    0          13.21637       2
    4   2     47   3696.034598    2    1    0    0           3.31862       1
    4   2     52   3791.610216    3    1    0    0          19.65365       3
    4   2     66   4360.966078    1    1    1    0          12.33158       1
    4   2     69   4418.278058    2    1    1    0          50.89862       4
    4   2     72   4513.740284    3    1    1    0          25.87168       4
    4   2     76    4647.04609    4    1    1    0          19.24343       3
    4   2     82   4850.292179    1    1    0    1          26.83279       3
    4   2     84   4909.783262    2    1    0    1          35.67322       6
    4   2     90   5008.818612    3    1    0    1          27.05009       6
    4   2     97   5147.003536    4    1    0    1          22.45066       5
    4   2    133   6044.546737    1    1    0    2           5.87220       2
    4   2    136    6106.50406    2    1    0    2           2.93864       2
    4   2    142   6209.436181    3    1    0    2           2.93737       2
    4   2    191   7078.194159    1    2    0    0          30.25783       2
    4   2    194   7133.242317    2    2    0    0          60.51575       4
    4   2    200   7224.948461    3    2    0    0          30.61025       4
    4   2    212   7353.016457    4    2    0    0          15.30512       2
    4   2    489   10349.90896    1    3    0    0           9.97785       3
    4   2    495    10402.6834    2    3    0    0          13.30380       4
    4   2    509    10490.6034    3    3    0    0           8.32409       5
    4   2    523    10613.3878    4    3    0    0           4.99169       3
    4   2    648   11506.20629    1    3    0    1           5.34281       2
    4   2    659   11561.21307    2    3    0    1           3.99362       2
    4   2    672   11651.49714    3    3    0    1          32.87976       2
    4   2    838   12641.38317    1    3    0    2           9.95037       2
    4   2    849   12697.82999    2    3    0    2           9.90148       2
    4   2    868   12791.85099    3    3    0    2          14.77994       3
    4   2    998   13454.27691    1    4    0    0          19.90075       4
    4   2   1009   13504.82503    2    4    0    0          19.90075       4
    4   2   1028   13589.09514    3    4    0    0          34.48653       7
    4   2   1052   13706.79927    4    4    0    0           3.99043       2
    4   2   1841   16624.85899    4    5    0    0           4.90290       1
    5   1      1   34.98888912    1    0    0    0     2649907.25325      53
    5   1      2   94.72019815    2    0    0    0     2404135.11239      68
    5   1      3   194.2641576    3    0    0    0     1645444.28439      57
    5   1      4   333.2711635    4    0    0    0      950000.00000      38
    5   1      5   511.3983701    5    0    0    0      447213.19100      20
    5   1      6   759.1839971    1    0    1    0         111.80230       5
    5   1      7   818.8398666    2    0    1    0         142.88659       7
    5   1      8   918.2577678    3    0    1    0         132.28738       7
    5   1      9    1057.08888    4    0    1    0         106.06591       6
    5   1     10   1234.991082    5    0    1    0          66.66667       4
    5   1     11   1274.342017    1    0    0    1         134.16276       6
    5   1     12   1336.334616    2    0    0    1          28.86750       3
    5   1     13   1439.604169    3    0    0    1          37.79643       4
    5   1     16   1583.706863    4    0    0    1          27.85430       3
    5   1     18   1768.190758    5    0    0    1          66.66667       4
    5   1     30   2497.769482    1    0    0    2          73.01735       4
    5   1     31   2562.306493    2    0    0    2          58.39832       5
    5   1     33   2669.749613    3    0    0    2          56.68452       6
    5   1     36   2819.528678    4    0    0    2          37.13265       4
    5   1     40   3011.044536    5    0    0    2          18.25437       2
    5   1     54   3643.653247    1    1    0    0          13.21637       2
    5   1     56   3700.997353    2    1    0    0           3.32595       1
    5   1     62   3796.582264    3    1    0    0          12.88313       2
    5   1     80   4365.923891    1    1    1    0          13.15786       1
    5   1     85   4423.199123    2    1    1    0          50.89862       4
    5   1     87   4518.659759    3    1    1    0          25.87168       4
    5   1     92   4651.963261    4    1    1    0          19.24343       3
    5   1     98   4822.781876    5    1    1    0           7.19699       2
    5   1    100   4855.283249    1    1    0    1          35.77706       4
    5   1    102   4914.735403    2    1    0    1          62.60985       7
    5   1    109   5013.768481    3    1    0    1          36.06679       8
    5   1    117   5151.950398    4    1    0    1          22.45066       5
    5   1    125   5328.859004    5    1    0    1          13.41641       3
    5   1    162   6049.522123    1    1    0    2           2.93610       1
    5   1    166   6111.441795    2    1    0    2           2.93864       2
    5   1    173   6214.376615    3    1    0    2           2.93737       2
    5   1    185   6357.788859    4    1    0    2           5.84206       2
    5   1    233   7083.190006    1    2    0    0          45.38667       3
    5   1    237   7138.202697    2    2    0    0          60.51575       4
    5   1    243   7229.906362    3    2    0    0          30.97519       4
    5   1    258   7357.971841    4    2    0    0          15.30512       2
    5   1    273   7522.087716    5    2    0    0          15.12896       2
    5   1    601   10354.90534    1    3    0    0           6.65190       2
    5   1    610   10407.63524    2    3    0    0           4.99445       3
    5   1    625   10495.55561    3    3    0    0           6.65927       4
    5   1    642   10618.34031    4    3    0    0           6.65558       4
    5   1    671   10775.69152    5    3    0    0           3.32595       2
    5   1    797   11511.18514    1    3    0    1           4.76444       2
    5   1    812   11566.07804    2    3    0    1           1.99681       1
    5   1    827   11656.41557    3    3    0    1          32.87970       2
    5   1    853   11783.23599    4    3    0    1           4.90290       1
    5   1   1031   12646.33014    1    3    0    2           0.94738       2
    5   1   1047   12702.75958    2    3    0    2           9.90148       2
    5   1   1068   12796.77386    3    3    0    2           3.25957       2
    5   1   1139   13095.59638    5    3    0    2           4.87950       1
    5   1   1228   13459.26305    1    4    0    0          24.87592       5
    5   1   1240   13509.77881    2    4    0    0          24.87592       5
    5   1   1264   13594.04331    3    4    0    0          29.55988       6
    5   1   1295   13711.75537    4    4    0    0           9.85329       2
    5   1   1334   13862.67699    5    4    0    0           4.90290       1
    5   1   2266   16629.80315    4    5    0    0           4.90290       1
    5   2      1   14.93058142    0    0    0    0   214329454.99081      35
    5   2      2   34.79330005    1    0    0    0     2449951.00098      49
    5   2      3   94.72037005    2    0    0    0     2333441.75588      66
    5   2      4   194.2641692    3    0    0    0     1587713.98054      55
    5   2      5   333.2711481    4    0    0    0     1000000.00000      40
    5   2      6   511.3983796    5    0    0    0      424852.53145      19
    5   2      7   739.1512945    0    0    1    0          61.23674       3
    5   2      8   758.9890618    1    0    1    0         134.16396       6
    5   2      9   818.8400405    2    0    1    0         183.71096       9
    5   2     10   918.2577765    3    0    1    0         132.28763       7
    5   2     11   1057.088885    4    0    1    0         106.06591       6
    5   2     12   1234.991089    5    0    1    0          66.66667       4
    5   2     13   1253.511169    0    0    0    1          74.99963       3
    5   2     14   1274.127346    1    0    0    1         156.52462       7
    5   2     15   1336.334926    2    0    0    1         102.06206       5
    5   2     16   1439.604041    3    0    0    1          28.34732       3
    5   2     20   1583.707058    4    0    0    1          88.38826       5
    5   2     22   1768.190635    5    0    0    1          50.00000       3
    5   2     34   2476.068402    0    0    0    2         117.64660       6
    5   2     37   2497.534852    1    0    0    2         117.64567       6
    5   2     38   2562.306634    2    0    0    2         109.52623       6
    5   2     40   2669.749665    3    0    0    2          56.68452       6
    5   2     44   2819.528683    4    0    0    2          37.13265       4
    5   2     49   3011.044536    5    0    0    2          18.25437       2
    5   2     70   3700.999815    2    1    0    0          19.48710       3
    5   2     82   3930.056439    4    1    0    0           6.38876       1
    5   2     97   4346.677214    0    1    1    0          38.17391       3
    5   2     98   4365.721296    1    1    1    0          26.31575       2
    5   2    104   4423.199088    2    1    1    0          50.89862       4
    5   2    106   4518.659739    3    1    1    0          25.87168       4
    5   2    112   4651.963258    4    1    1    0          19.24343       3
    5   2    119   4822.781884    5    1    1    0           7.19699       2
    5   2    120   4835.293334    0    1    0    1          19.82455       3
    5   2    122   4855.061912    1    1    0    1          35.77709       4
    5   2    125   4914.735345    2    1    0    1          53.66558       6
    5   2    133   5013.768595    3    1    0    1          36.06679       8
    5   2    143   5151.950361    4    1    0    1          22.45066       5
    5   2    152   5328.859006    5    1    0    1          13.41641       3
    5   2    195   6028.645514    0    1    0    2           5.88235       2
    5   2    197   6049.273206    1    1    0    2           5.87220       2
    5   2    203   6111.442017    2    1    0    2           2.93864       2
    5   2    210   6214.376643    3    1    0    2           2.93737       2
    5   2    225   6357.788865    4    1    0    2           5.84206       2
    5   2    280   7064.699521    0    2    0    0          47.61897       3
    5   2    283    7082.98312    1    2    0    0          79.36495       5
    5   2    288   7138.202887    2    2    0    0          75.64457       5
    5   2    297   7229.906288    3    2    0    0          30.97519       4
    5   2    313   7357.971843    4    2    0    0          15.30512       2
    5   2    332   7522.087716    5    2    0    0          15.12896       2
    5   2    726   10337.16266    0    3    0    0          13.33333       4
    5   2    729   10354.68956    1    3    0    0          13.30380       4
    5   2    739   10407.63568    2    3    0    0          16.62975       5
    5   2    759   10495.55564    3    3    0    0           6.65927       4
    5   2    780   10618.34036    4    3    0    0           6.65558       4
    5   2    812   10775.69152    5    3    0    0           3.32595       2
    5   2    960   11492.82542    0    3    0    1          10.00000       2
    5   2    966   11510.94304    1    3    0    1           5.13066       2
    5   2    983    11566.0808    2    3    0    1           9.90148       2
    5   2   1001   11656.41857    3    3    0    1          32.87976       2
    5   2   1035   11783.23599    4    3    0    1           4.90290       1
    5   2   1245   12627.33282    0    3    0    2          10.00000       2
    5   2   1251   12646.07754    1    3    0    2           8.88139       2
    5   2   1269   12702.75981    2    3    0    2           9.90148       2
    5   2   1293   12796.77387    3    3    0    2           3.20122       2
    5   2   1380   13095.59637    5    3    0    2           4.87950       1
    5   2   1478   13442.25059    0    4    0    0          15.37870       4
    5   2   1485   13459.03208    1    4    0    0          19.90074       4
    5   2   1502   13509.78026    2    4    0    0          39.80149       8
    5   2   1530   13594.04345    3    4    0    0          24.63324       5
    5   2   1568   13711.74704    4    4    0    0          24.51451       5
    5   2   1614   13862.67699    5    4    0    0           4.90290       1
    5   2   2816   16775.25637    5    5    0    0           4.87950       1
    6   1      1   20.90222352    0    0    0    0   155396892.06216      37
    6   1      2    40.7255086    1    0    0    0     2749903.75337      55
    6   1      3   100.6904361    2    0    0    0     2333425.25615      66
    6   1      4   200.2315892    3    0    0    0     1587709.39722      55
    6   1      5    339.235149    4    0    0    0     1100000.00000      44
    6   1      6   517.3579394    5    0    0    0      491934.51010      22
    6   1      7   734.1744983    6    0    0    0      204124.12380      10
    6   1      8   745.0680405    0    0    1    0          89.44144       4
    6   1      9   764.8663683    1    0    1    0         156.52252       7
    6   1     10   824.7551462    2    0    1    0         163.29897       8
    6   1     11   924.1702966    3    0    1    0         151.18558       8
    6   1     12   1062.997927    4    0    1    0         159.09886       9
    6   1     13   1240.895781    5    0    1    0          83.33333       5
    6   1     14   1259.465041    0    0    0    1          99.99925       4
    6   1     15   1280.038044    1    0    0    1         134.16216       6
    6   1     16   1342.286971    2    0    0    1         102.06185       5
    6   1     17   1445.553342    3    0    0    1          28.34732       3
    6   1     18   1457.439483    6    0    1    0          47.43413       3
    6   1     22   1589.652218    4    0    0    1          70.71061       4
    6   1     24   1774.131051    5    0    0    1          66.66667       4
    6   1     28   1998.438363    6    0    0    1          18.25722       2
    6   1     38   2482.006106    0    0    0    2          73.01735       4
    6   1     41   2503.424703    1    0    0    2         127.78036       7
    6   1     42   2568.242398    2    0    0    2         127.78036       7
    6   1     44    2675.68173    3    0    0    2          56.68452       6
    6   1     49   2825.456474    4    0    0    2          55.69898       6
    6   1     55   3016.968193    5    0    0    2          18.25437       2
    6   1     62    3249.49558    6    0    0    2           8.97882       1
    6   1     76   3649.372286    1    1    0    0          13.21636       2
    6   1     79   3706.959835    2    1    0    0           6.65190       2
    6   1     91   3936.010699    4    1    0    0           6.38876       1
    6   1    110   4352.584291    0    1    1    0          50.89862       4
    6   1    111    4371.58854    1    1    1    0          26.31572       2
    6   1    117   4429.105749    2    1    1    0          32.61362       5
    6   1    120   4524.562549    3    1    1    0          25.87168       4
    6   1    126   4657.863536    4    1    1    0          19.24343       3
    6   1    135   4828.680358    5    1    1    0          12.72466       2
    6   1    136    4841.23533    0    1    0    1           8.94425       1
    6   1    138   4860.960799    1    1    0    1          44.72132       5
    6   1    141   4920.677629    2    1    0    1          80.49837       9
    6   1    150    5019.70734    3    1    0    1          36.06679       8
    6   1    161   5157.886333    4    1    0    1          22.45066       5
    6   1    171   5334.788608    5    1    0    1           8.94427       2
    6   1    221   6034.574081    0    1    0    2           2.94118       2
    6   1    224   6055.153475    1    1    0    2           5.87220       2
    6   1    230   6117.368054    2    1    0    2           2.93864       2
    6   1    238   6220.298663    3    1    0    2           2.93737       2
    6   1    255   6363.703884    4    1    0    2           2.93610       2
    6   1    319   7070.652871    0    2    0    0          31.74593       2
    6   1    322   7088.894271    1    2    0    0          95.23779       6
    6   1    328   7144.155118    2    2    0    0          90.77334       6
    6   1    338   7235.856895    3    2    0    0          38.71899       5
    6   1    355   7363.919269    4    2    0    0          22.95768       3
    6   1    377   7528.031398    5    2    0    0           7.47931       1
    6   1    398   7727.804165    6    2    0    0          10.27706       2
    6   1    828   10343.11113    0    3    0    0          13.33333       4
    6   1    835   10360.59365    1    3    0    0           9.95585       3
    6   1    845   10413.58245    2    3    0    0          13.30380       4
    6   1    868    10501.4999    3    3    0    0           8.32409       5
    6   1    895   10624.28226    4    3    0    0           9.98337       6
    6   1    929   10781.63014    5    3    0    0           3.32411       2
    6   1    972   10973.17707    6    3    0    0           1.66206       1
    6   1   1098   11498.75314    0    3    0    1           7.26216       2
    6   1   1104   11516.82167    1    3    0    1           3.90251       2
    6   1   1125   11571.93382    2    3    0    1           3.99362       2
    6   1   1145   11662.33732    3    3    0    1          16.43985       1
    6   1   1187   11789.15015    4    3    0    1           4.90290       1
    6   1   1426    12633.2303    0    3    0    2          10.00000       2
    6   1   1432   12651.93423    1    3    0    2           9.95036       2
    6   1   1455   12708.67482    2    3    0    2           9.90148       2
    6   1   1482   12802.67693    3    3    0    2           7.77774       2
    6   1   1581   13101.50095    5    3    0    2           4.87950       1
    6   1   1695   13448.19564    0    4    0    0          19.99999       4
    6   1   1704   13464.92766    1    4    0    0          24.99999       5
    6   1   1722   13515.72003    2    4    0    0          39.80147       8
    6   1   1755   13599.98781    3    4    0    0          19.80295       4
    6   1   1797   13717.68924    4    4    0    0          14.77994       3
    6   1   1852   13868.61515    5    4    0    0           1.99363       1
    6   1   1928    14052.4255    6    4    0    0           4.87948       1
    6   1   3235   16781.19495    5    5    0    0           4.87950       1
    6   2      1   40.99933344    1    0    0    0     2749876.25557      55
    6   2      2   100.6900402    2    0    0    0     2191997.79386      62
    6   2      3   200.2315496    3    0    0    0     1558832.95373      54
    6   2      4   339.2351172    4    0    0    0      999997.50001      40
    6   2      5   517.3579513    5    0    0    0      559016.48875      25
    6   2      6   734.1744977    6    0    0    0      245951.30611      11
    6   2      7   765.1393553    1    0    1    0         111.80105       5
    6   2      8   824.7548041    2    0    1    0         163.29897       8
    6   2      9   924.1702582    3    0    1    0         170.08378       9
    6   2     10   1062.997932    4    0    1    0         123.74356       7
    6   2     11   1240.895778    5    0    1    0          83.33333       5
    6   2     12   1280.338585    1    0    0    1         111.80105       5
    6   2     13     1342.2866    2    0    0    1          28.86750       3
    6   2     14   1445.553327    3    0    0    1          28.34732       3
    6   2     15   1457.439482    6    0    1    0          47.43413       3
    6   2     18   1589.652327    4    0    0    1          27.85430       3
    6   2     20   1774.131259    5    0    0    1          27.85399       3
    6   2     23   1998.438358    6    0    0    1          18.25727       2
    6   2     34    2503.75387    1    0    0    2          73.01722       4
    6   2     35   2568.241706    2    0    0    2         109.52583       6
    6   2     37   2675.681632    3    0    0    2          56.68452       6
    6   2     41   2825.456486    4    0    0    2          55.69898       6
    6   2     46   3016.968196    5    0    0    2          18.25437       2
    6   2     52    3249.49557    6    0    0    2           8.97881       1
    6   2     63   3649.654007    1    1    0    0           6.63723       2
    6   2     65   3706.962417    2    1    0    0           3.31862       1
    6   2     71   3802.539389    3    1    0    0          25.76626       4
    6   2     82   4107.048458    5    1    0    0           6.38874       1
    6   2     93   4371.869901    1    1    1    0          39.47348       3
    6   2     98   4429.105154    2    1    1    0          32.61362       5
    6   2    101   4524.562412    3    1    1    0          25.87168       4
    6   2    106   4657.863551    4    1    1    0          19.24343       3
    6   2    114   4828.680381    5    1    1    0          12.72466       2
    6   2    116   4861.270976    1    1    0    1          44.72132       5
    6   2    118   4920.677041    2    1    0    1          71.55411       8
    6   2    126    5019.70727    3    1    0    1          36.06677       8
    6   2    135   5157.886344    4    1    0    1          22.45066       5
    6   2    144   5334.788631    5    1    0    1           8.94427       2
    6   2    189   6055.499339    1    1    0    2           2.93610       1
    6   2    193   6117.367592    2    1    0    2           2.93864       2
    6   2    201   6220.298621    3    1    0    2           2.93737       2
    6   2    215   6363.703881    4    1    0    2           2.93610       2
    6   2    272   7089.186989    1    2    0    0          30.25783       2
    6   2    277   7144.155212    2    2    0    0          90.77348       6
    6   2    284   7235.856689    3    2    0    0          38.71896       5
    6   2    300   7363.919276    4    2    0    0          22.95768       3
    6   2    318   7528.031388    5    2    0    0           7.47933       1
    6   2    337   7727.804165    6    2    0    0          10.47604       2
    6   2    707    10360.8897    1    3    0    0           6.65190       2
    6   2    716   10413.58227    2    3    0    0          13.30380       4
    6   2    734   10501.50004    3    3    0    0           8.32409       5
    6   2    756   10624.28233    4    3    0    0           9.98337       6
    6   2    788   10781.63014    5    3    0    0           3.32595       2
    6   2    823   10973.17706    6    3    0    0           1.66206       1
    6   2    935    11517.1545    1    3    0    1           9.95037       2
    6   2    954   11571.93336    2    3    0    1           3.99362       2
    6   2    971   11662.33925    3    3    0    1          16.43985       1
    6   2   1005   11789.15016    4    3    0    1           4.90290       1
    6   2   1212     12652.299    1    3    0    2           9.95037       2
    6   2   1233   12708.67436    2    3    0    2           9.90148       2
    6   2   1257   12802.67692    3    3    0    2           6.66652       2
    6   2   1340   13101.50094    5    3    0    2           4.87950       1
    6   2   1446   13465.23889    1    4    0    0          29.85110       6
    6   2   1460   13515.71835    2    4    0    0          24.75369       5
    6   2   1489   13599.98753    3    4    0    0          19.80295       4
    6   2   1524   13717.68895    4    4    0    0           9.85329       2
    6   2   1572   13868.61516    5    4    0    0           1.99363       1
    7   1      1   48.01110622    1    0    0    0     2649721.77921      53
    7   1      2   107.6545166    2    0    0    0     2439464.16639      69
    7   1      3   207.1932453    3    0    0    0     1732031.61535      60
    7   1      4   346.1927485    4    0    0    0     1349993.25003      54
    7   1      5   524.3104168    5    0    0    0      724940.19243      29
    7   1      6   741.1207576    6    0    0    0      357753.75362      16
    7   1      7    772.086977    1    0    1    0         111.80180       5
    7   1      8   831.6551803    2    0    1    0         142.88601       7
    7   1      9   931.0678902    3    0    1    0         170.08378       9
    7   1     10   996.1250608    7    0    0    0      142879.01209       7
    7   1     11    1069.89146    4    0    1    0         141.42121       8
    7   1     12   1247.784225    5    0    1    0         123.74006       7
    7   1     13   1287.334321    1    0    0    1         156.52322       7
    7   1     14   1349.230238    2    0    0    1          28.86747       3
    7   1     15   1452.493975    3    0    0    1          75.59236       4
    7   1     16   1464.321749    6    0    1    0          47.43413       3
    7   1     19   1596.588349    4    0    0    1          27.85430       3
    7   1     21   1719.007082    7    0    1    0          30.15113       2
    7   1     22    1781.06126    5    0    0    1          88.38576       5
    7   1     25   2005.361897    6    0    0    1          27.38583       3
    7   1     31   2268.852484    7    0    0    1          18.25692       2
    7   1     38   2510.734887    1    0    0    2          91.27102       5
    7   1     39   2575.166406    2    0    0    2         109.52563       6
    7   1     41   2682.602807    3    0    0    2          56.68447       6
    7   1     45   2832.372041    4    0    0    2          37.13265       4
    7   1     51   3023.876912    5    0    0    2          27.38156       3
    7   1     58   3256.396361    6    0    0    2           8.97881       1
    7   1     70    3656.65608    1    1    0    0          26.43272       4
    7   1     73   3713.913699    2    1    0    0           6.65190       2
    7   1     79   3809.490065    3    1    0    0          26.20485       4
    7   1     91   4113.987746    5    1    0    0           3.29690       1
    7   1    103   4378.806898    1    1    1    0          25.44921       2
    7   1    109   4435.994321    2    1    1    0          76.34773       6
    7   1    112   4531.449663    3    1    1    0          32.33958       5
    7   1    114   4567.047198    7    1    0    0           6.38873       1
    7   1    119   4664.745884    4    1    1    0          19.24341       3
    7   1    128   4835.558493    5    1    1    0          12.72466       2
    7   1    130   4868.256426    1    1    0    1          44.72104       5
    7   1    132   4927.609482    2    1    0    1          53.66553       6
    7   1    141   5026.636052    3    1    0    1          31.55843       7
    7   1    151   5164.810706    4    1    0    1          31.43092       7
    7   1    162   5341.709508    5    1    0    1           8.94427       2
    7   1    214   6062.472853    1    1    0    2           5.87220       2
    7   1    218   6124.280293    2    1    0    2           2.93864       2
    7   1    227   6227.201895    3    1    0    2           2.93737       2
    7   1    242   6370.613428    4    1    0    2           2.93610       2
    7   1    307   7096.180608    1    2    0    0          60.51556       4
    7   1    313   7151.098711    2    2    0    0          90.77334       6
    7   1    322   7242.797786    3    2    0    0          54.20654       7
    7   1    339   7370.856492    4    2    0    0          15.30512       2
    7   1    360   7534.963451    5    2    0    0          15.12896       2
    7   1    380   7734.732304    6    2    0    0          14.95873       2
    7   1    805   10367.87677    1    3    0    0           9.97785       3
    7   1    815    10420.5143    2    3    0    0          13.30380       4
    7   1    835   10508.43493    3    3    0    0           9.98891       6
    7   1    861   10631.21005    4    3    0    0           8.31948       5
    7   1    897   10788.55523    5    3    0    0           3.32595       2
    7   1    937    10980.0964    6    3    0    0           3.32411       2
    7   1   1068   11524.12173    1    3    0    1           6.89440       2
    7   1   1088   11578.77948    2    3    0    1          34.81524       2
    7   1   1107   11669.25255    3    3    0    1           1.99522       1
    7   1   1144   11796.04612    4    3    0    1           4.90290       1
    7   1   1239    12155.8685    6    3    0    1           4.87948       1
    7   1   1384   12659.25123    1    3    0    2           2.54987       2
    7   1   1407   12715.56304    2    3    0    2           4.95074       1
    7   1   1435   12809.56655    3    3    0    2          14.77993       3
    7   1   1530   13108.36505    5    3    0    2           9.75900       2
    7   1   1651   13472.22991    1    4    0    0          22.28232       5
    7   1   1669    13522.6514    2    4    0    0          19.90074       4
    7   1   1701   13606.91406    3    4    0    0          29.55987       6
    7   1   1742   13724.61424    4    4    0    0          24.51451       5
    7   1   1795    13875.5314    5    4    0    0           1.99205       1
    7   1   3062   16642.64077    4    5    0    0           4.90290       1
    7   2      1    27.8686905    0    0    0    0     1899867.00931      38
    7   2      2   47.64603967    1    0    0    0     2599818.01274      52
    7   2      3   107.6552678    2    0    0    0     2616255.43138      74
    7   2      4   207.1933171    3    0    0    0     1645434.78449      57
    7   2      5   346.1927695    4    0    0    0     1524996.18751      61
    7   2      6   524.3103991    5    0    0    0      603737.80785      27
    7   2      7   741.1207685    6    0    0    0      290669.72541      13
    7   2      8   751.9704082    0    0    1    0          99.99825       4
    7   2      9    771.723017    1    0    1    0         156.52357       7
    7   2     10   831.6559924    2    0    1    0         163.29730       8
    7   2     11   931.0678998    3    0    1    0         132.28738       7
    7   2     12   996.1250499    7    0    0    0      156492.07368       7
    7   2     13   1069.891499    4    0    1    0         194.45417      11
    7   2     14    1247.78422    5    0    1    0          83.33333       5
    7   2     15   1266.411228    0    0    0    1          99.99825       4
    7   2     16   1286.933499    1    0    0    1         156.52357       7
    7   2     17   1349.231128    2    0    0    1         102.06165       5
    7   2     18   1452.493866    3    0    0    1          28.34732       3
    7   2     19   1464.321753    6    0    1    0          49.99867       3
    7   2     23   1596.588189    4    0    0    1         106.06591       6
    7   2     25   1719.007083    7    0    1    0          30.15113       2
    7   2     26   1781.061483    5    0    0    1          70.70773       4
    7   2     30    2005.36176    6    0    0    1          63.24551       4
    7   2     37     2268.8525    7    0    0    1          18.25680       2
    7   2     42   2488.933069    0    0    0    2          78.43045       4
    7   2     45   2510.296545    1    0    0    2         109.52583       6
    7   2     46   2575.167159    2    0    0    2         127.78013       7
    7   2     48   2682.602969    3    0    0    2          56.68452       6
    7   2     53   2832.372035    4    0    0    2          37.13265       4
    7   2     60   3023.877018    5    0    0    2          27.38156       3
    7   2     68   3256.396349    6    0    0    2           8.97881       1
    7   2     82   3637.304843    0    1    0    0           6.60818       1
    7   2     83    3656.28022    1    1    0    0          19.82453       3
    7   2     87   3713.914267    2    1    0    0          19.48709       3
    7   2    100   3942.956531    4    1    0    0          19.48709       3
    7   2    120   4359.475119    0    1    1    0          63.62319       5
    7   2    121   4378.429044    1    1    1    0          13.15783       1
    7   2    128   4435.995252    2    1    1    0          63.62319       5
    7   2    131   4531.449601    3    1    1    0          32.33960       5
    7   2    139   4664.745877    4    1    1    0          19.24343       3
    7   2    149   4835.558499    5    1    1    0          12.72466       2
    7   2    150    4848.16969    0    1    0    1          26.83279       3
    7   2    152   4867.841898    1    1    0    1          54.54531       6
    7   2    155   4927.610735    2    1    0    1          62.60985       7
    7   2    165   5026.636264    3    1    0    1          31.55843       7
    7   2    177   5164.810711    4    1    0    1          31.43092       7
    7   2    189   5341.709514    5    1    0    1           8.94427       2
    7   2    246   6041.484883    0    1    0    2           5.87220       2
    7   2    249   6062.007685    1    1    0    2           5.87220       2
    7   2    255   6124.281132    2    1    0    2           2.93864       2
    7   2    264   6227.201947    3    1    0    2           2.93737       2
    7   2    282   6370.613444    4    1    0    2           2.93610       2
    7   2    354   7077.598553    0    2    0    0          24.74929       2
    7   2    357   7095.791781    1    2    0    0          75.64457       5
    7   2    364   7151.099652    2    2    0    0          90.77348       6
    7   2    376   7242.797938    3    2    0    0          54.20654       7
    7   2    394   7370.856517    4    2    0    0          15.30512       2
    7   2    419   7534.963457    5    2    0    0          15.12896       2
    7   2    441   7734.732309    6    2    0    0          14.95873       2
    7   2    926   10350.04843    0    3    0    0           6.66666       2
    7   2    933   10367.47628    1    3    0    0           9.97785       3
    7   2    944   10420.51968    2    3    0    0          13.30380       4
    7   2    969   10508.43492    3    3    0    0           9.98891       6
    7   2   1000   10631.21012    4    3    0    0           8.31948       5
    7   2   1038   10788.55524    5    3    0    0           3.32595       2
    7   2   1087   10980.09638    6    3    0    0           3.32595       2
    7   2   1230   11505.67053    0    3    0    1           2.08420       2
    7   2   1236   11523.67864    1    3    0    1           3.70185       2
    7   2   1260   11578.80009    2    3    0    1           0.97457       2
    7   2   1281   11669.25259    3    3    0    1           1.99522       1
    7   2   1326   11796.04615    4    3    0    1           4.90290       1
    7   2   1434    12155.8685    6    3    0    1           4.85643       1
    7   2   1598   12640.12453    0    3    0    2           2.70416       2
    7   2   1604   12658.77214    1    3    0    2           6.99788       2
    7   2   1629   12715.56344    2    3    0    2           4.95074       1
    7   2   1660   12809.56658    3    3    0    2          14.77994       3
    7   2   1771   13108.36507    5    3    0    2           9.80578       2
    7   2   1899   13455.12703    0    4    0    0           8.55981       4
    7   2   1909   13471.81219    1    4    0    0          24.99999       5
    7   2   1931   13522.65314    2    4    0    0          39.80147       8
    7   2   1967   13606.91412    3    4    0    0          24.63322       5
    7   2   2015    13724.6114    4    4    0    0          34.32032       7
    7   2   2075   13875.53142    5    4    0    0           4.90289       1
    7   2   2160   14059.31776    6    4    0    0           4.87949       1
    7   2   3632   16788.09742    5    5    0    0           4.90289       1
    8   1      1   35.82984335    0    0    0    0     1999790.02205      40
    8   1      2   55.55478085    1    0    0    0     1732348.60511      49
    8   1      3   115.6147488    2    0    0    0     2191966.79524      62
    8   1      4   215.1490943    3    0    0    0     1760898.80894      61
    8   1      5   354.1438995    4    0    0    0     1299993.50003      52
    8   1      6   532.2556956    5    0    0    0      559016.48875      25
    8   1      7   749.0589255    6    0    0    0      374902.52534      15
    8   1      8   759.8582826    0    0    1    0         111.80180       5
    8   1      9   779.5586755    1    0    1    0         178.88288       8
    8   1     10   839.5421046    2    0    1    0         183.71059       9
    8   1     11   938.9504739    3    0    1    0         170.08217       9
    8   1     12   1004.054949    7    0    0    0      245917.21532      11
    8   1     13   1077.769534    4    0    1    0         194.45417      11
    8   1     14   1255.656353    5    0    1    0         123.74006       7
    8   1     15   1274.348625    0    0    0    1         111.80180       5
    8   1     17   1294.813575    1    0    0    1         134.16216       6
    8   1     16   1296.681335    8    0    0    0       81638.48438       4
    8   1     18   1357.166698    2    0    0    1         102.06144       5
    8   1     19   1460.425495    3    0    0    1          28.34732       3
    8   1     20   1472.186806    6    0    1    0          49.99817       3
    8   1     24   1604.514768    4    0    0    1         106.06591       6
    8   1     26   1726.863953    7    0    1    0          31.62200       2
    8   1     27   1788.981115    5    0    0    1          28.34628       3
    8   1     31   2013.274085    6    0    0    1          27.85332       3
    8   1     33   2019.127783    8    0    1    0          14.43376       1
    8   1     39   2276.755677    7    0    0    1          66.66056       4
    8   1     44   2496.848816    0    0    0    2          91.27102       5
    8   1     47   2518.149378    1    0    0    2         127.77943       7
    8   1     48   2578.724103    8    0    0    1           8.97997       1
    8   1     49    2583.08064    2    0    0    2         109.52523       6
    8   1     51   2690.511449    3    0    0    2          56.68447       6
    8   1     57     2840.2756    4    0    0    2          64.98214       7
    8   1     64   3031.773323    5    0    0    2          27.38156       3
    8   1     72   3264.284419    6    0    0    2           8.97881       1
    8   1     88   3645.253764    0    1    0    0           3.31862       1
    8   1     89   3664.177983    1    1    0    0           3.31133       1
    8   1     93   3721.860983    2    1    0    0          19.48709       3
    8   1    107   3950.895042    4    1    0    0          20.31759       4
    8   1    127   4330.105648    6    1    0    0           6.38871       1
    8   1    129    4367.35031    0    1    1    0          38.17348       3
    8   1    130    4386.25339    1    1    1    0          63.62303       5
    8   1    137   4443.868282    2    1    1    0          89.07224       7
    8   1    140   4539.319397    3    1    1    0          51.74333       8
    8   1    149    4672.61146    4    1    1    0          19.24341       3
    8   1    161   4843.417569    5    1    1    0          12.72466       2
    8   1    163   4856.093594    0    1    0    1          17.88842       2
    8   1    165   4875.708022    1    1    0    1          35.77699       4
    8   1    168   4935.532788    2    1    0    1          71.55398       8
    8   1    178   5034.554783    3    1    0    1          40.57512       9
    8   1    191   5172.723232    4    1    0    1          26.94079       6
    8   1    204     5349.6151    5    1    0    1          13.47029       3
    8   1    266   6049.388084    0    1    0    2           5.86210       2
    8   1    269   6069.845753    1    1    0    2           5.87220       2
    8   1    278    6132.17988    2    1    0    2           2.93864       2
    8   1    287   6235.101522    3    1    0    2           2.93737       2
    8   1    307   6378.499065    4    1    0    2           2.93610       2
    8   1    386    7085.53645    0    2    0    0          60.51547       4
    8   1    389   7103.673605    1    2    0    0          75.64434       5
    8   1    396   7159.035862    2    2    0    0         105.90207       7
    8   1    409   7250.730487    3    2    0    0          46.46275       6
    8   1    429   7378.784892    4    2    0    0          45.91537       6
    8   1    457   7542.885505    5    2    0    0          15.12896       2
    8   1    482   7742.646334    6    2    0    0          14.95873       2
    8   1   1015   10357.97506    0    3    0    0           9.97784       3
    8   1   1022    10375.3471    1    3    0    0          13.30380       4
    8   1   1036   10428.44698    2    3    0    0          23.28165       7
    8   1   1063   10516.35859    3    3    0    0          11.65373       7
    8   1   1097   10639.12974    4    3    0    0           8.31948       5
    8   1   1138   10796.46648    5    3    0    0           2.19380       2
    8   1   1192   10988.00385    6    3    0    0           4.98892       3
    8   1   1262   11213.29153    7    3    0    0           1.66205       1
    8   1   1350   11513.56008    0    3    0    1           3.99680       2
    8   1   1357   11531.51383    1    3    0    1           4.34655       2
    8   1   1383    11586.6198    2    3    0    1          32.87959       2
    8   1   1408   11677.14832    3    3    0    1           1.99522       1
    8   1   1457   11803.94077    4    3    0    1           4.90290       1
    8   1   1509   11966.28156    5    3    0    1           4.92660       1
    8   1   1574   12163.74477    6    3    0    1           4.87948       1
    8   1   1756   12648.00501    0    3    0    2           9.90147       2
    8   1   1763   12666.58333    1    3    0    2           5.46676       2
    8   1   1791   12723.44178    2    3    0    2           4.92664       1
    8   1   1825   12817.44357    3    3    0    2           9.85329       2
    8   1   1947   13116.23556    5    3    0    2           4.92660       1
    8   1   2092   13463.05108    0    4    0    0          19.90073       4
    8   1   2102   13479.68086    1    4    0    0          19.90073       4
    8   1   2127   13530.57578    2    4    0    0          39.80145       8
    8   1   2165   13614.82961    3    4    0    0          34.65515       7
    8   1   2216   13732.52793    4    4    0    0          34.48651       7
    8   1   2285   13883.44033    5    4    0    0           3.98726       2
    8   1   2378   14067.42687    6    4    0    0           1.99363       1
    8   1   4006   16796.00068    5    5    0    0           4.90289       1
    8   2      1   56.02412297    1    0    0    0     2899362.14033      58
    8   2      2   115.6134653    2    0    0    0     2191959.04572      62
    8   2      3   215.1490305    3    0    0    0     1876362.16677      65
    8   2      4   354.1438991    4    0    0    0     1249990.62507      50
    8   2      5   532.2556842    5    0    0    0      749955.00270      30
    8   2      6   749.0589457    6    0    0    0      335388.14470      15
    8   2      7   780.0265018    1    0    1    0         134.16126       6
    8   2      8   839.5409351    2    0    1    0         163.29730       8
    8   2      9   938.9503949    3    0    1    0         188.98126      10
    8   2     10   1004.054927    7    0    0    0      245927.11168      11
    8   2     11    1077.76959    4    0    1    0         141.42121       8
    8   2     12   1255.656311    5    0    1    0         159.09240       9
    8   2     14   1295.328723    1    0    0    1         156.52147       7
    8   2     13   1296.681353    8    0    0    0       81635.81853       4
    8   2     15   1357.165358    2    0    0    1          28.86747       3
    8   2     16   1460.425588    3    0    0    1         113.38876       6
    8   2     17   1472.186833    6    0    1    0          49.99867       3
    8   2     20   1604.514796    4    0    0    1          28.34708       3
    8   2     22   1726.863949    7    0    1    0          30.15113       2
    8   2     23   1788.981045    5    0    0    1          88.38357       5
    8   2     26   2013.274065    6    0    0    1          27.85350       3
    8   2     28   2019.127782    8    0    1    0          14.43376       1
    8   2     33   2276.755591    7    0    0    1          27.38546       3
    8   2     40   2518.712865    1    0    0    2         109.52463       6
    8   2     41   2578.724085    8    0    0    1           8.98003       1
    8   2     42   2583.079278    2    0    0    2          91.27052       5
    8   2     44   2690.511462    3    0    0    2          56.68447       6
    8   2     49   2840.275595    4    0    0    2          64.98208       7
    8   2     55   3031.773306    5    0    0    2          27.38156       3
    8   2     62   3264.284437    6    0    0    2           9.12709       1
    8   2     76   3664.658193    1    1    0    0          13.10242       2
    8   2     79   3721.859153    2    1    0    0           6.65190       2
    8   2     85   3817.430699    3    1    0    0          19.65364       3
    8   2     99   4121.920645    5    1    0    0           8.32455       2
    8   2    112   4386.735175    1    1    1    0          38.17372       3
    8   2    118   4443.867322    2    1    1    0          25.87166       4
    8   2    121   4539.319299    3    1    1    0          51.74333       8
    8   2    124   4574.966158    7    1    0    0           6.38874       1
    8   2    129   4672.611461    4    1    1    0          19.24341       3
    8   2    140   4843.417559    5    1    1    0          12.72466       2
    8   2    143   4876.240603    1    1    0    1          26.41350       3
    8   2    145    4935.53076    2    1    0    1          62.60968       7
    8   2    154   5034.554604    3    1    0    1          40.57512       9
    8   2    165   5172.723223    4    1    0    1          26.94079       6
    8   2    177   5349.615097    5    1    0    1          13.41641       3
    8   2    234    6070.44267    1    1    0    2           2.60668       2
    8   2    240   6132.178463    2    1    0    2           2.93864       2
    8   2    250   6235.101476    3    1    0    2           2.93737       2
    8   2    267    6378.49905    4    1    0    2           2.93737       2
    8   2    339   7104.173305    1    2    0    0          86.88311       6
    8   2    345   7159.034498    2    2    0    0         105.90159       7
    8   2    355    7250.73003    3    2    0    0          46.46275       6
    8   2    374   7378.784779    4    2    0    0          45.91533       6
    8   2    398    7542.88548    5    2    0    0          15.12895       2
    8   2    421   7742.646355    6    2    0    0          15.12884       2
    8   2    894   10375.86449    1    3    0    0          13.30379       4
    8   2    906   10428.44755    2    3    0    0          16.62974       5
    8   2    929   10516.35836    3    3    0    0          11.65373       7
    8   2    958   10639.12973    4    3    0    0           8.31948       5
    8   2    997   10796.46649    5    3    0    0           2.17895       2
    8   2   1043   10988.00384    6    3    0    0           4.98892       3
    8   2   1106   11213.29155    7    3    0    0           1.66205       1
    8   2   1188   11532.09646    1    3    0    1           9.90146       2
    8   2   1211   11586.61771    2    3    0    1          34.81464       2
    8   2   1234   11677.14825    3    3    0    1           1.99522       1
    8   2   1275   11803.94075    4    3    0    1           4.90290       1
    8   2   1322   11966.28157    5    3    0    1           4.90288       1
    8   2   1379   12163.74476    6    3    0    1           4.87949       1
    8   2   1543   12667.18715    1    3    0    2           1.30793       2
    8   2   1569    12723.4397    2    3    0    2           4.95073       1
    8   2   1600   12817.44353    3    3    0    2           9.85329       2
    8   2   1706   13116.23557    5    3    0    2           4.90288       1
    8   2   1844   13480.20511    1    4    0    0          21.97174       5
    8   2   1865   13530.57512    2    4    0    0          24.87591       5
    8   2   1899     13614.831    3    4    0    0          44.55662       9
    8   2   1943   13732.52232    4    4    0    0           8.55459       4
    8   2   2005   13883.44045    5    4    0    0           7.97452       4
    8   2   3362   16536.08281    3    5    0    0           4.92664       1
    8   2   3425    16650.5379    4    5    0    0           4.90290       1
    8   2   3516   16796.00657    5    5    0    0           4.90288       1
    9   1      1   65.03819363    1    0    0    0     2015031.42742      57
    9   1      2   124.5666999    2    0    0    0     2368545.71293      67
    9   1      3   224.0988065    3    0    0    0     1934079.63789      67
    9   1      4   363.0883909    4    0    0    0     1616450.85123      56
    9   1      5   541.1935719    5    0    0    0     1049884.51270      42
    9   1      6   757.9888413    6    0    0    0      474902.64496      19
    9   1      7   788.9579763    1    0    1    0         178.87768       8
    9   1      8   848.4117276    2    0    1    0         183.70834       9
    9   1      9   947.8177749    3    0    1    0         151.18415       8
    9   1     10   1012.975474    7    0    0    0      201216.69025       9
    9   1     11   1086.631572    4    0    1    0         170.07349       9
    9   1     12   1264.511857    5    0    1    0         151.16815       8
    9   1     14   1304.322015    1    0    0    1         134.15826       6
    9   1     13   1305.591221    8    0    0    0      122463.47527       6
    9   1     15   1366.091802    2    0    0    1          28.86744       3
    9   1     16   1469.347982    3    0    0    1         113.38854       6
    9   1     17   1481.034469    6    0    1    0          66.66422       4
    9   1     20   1613.431522    4    0    0    1          28.34689       3
    9   1     21   1635.219648    9    0    0    0       75584.93290       4
    9   1     23   1735.702321    7    0    1    0          49.99542       3
    9   1     24   1797.890229    5    0    0    1          94.48009       5
    9   1     27    2022.17473    6    0    0    1          27.85360       3
    9   1     29   2027.955749    8    0    1    0          14.43376       1
    9   1     34   2285.646007    7    0    0    1          27.38563       3
    9   1     42   2527.687592    1    0    0    2         109.52303       6
    9   1     43   2587.602983    8    0    0    1          17.96011       2
    9   1     44   2591.980822    2    0    0    2          91.26919       5
    9   1     46   2699.408662    3    0    0    2          37.13262       4
    9   1     51    2849.16623    4    0    0    2          47.23674       5
    9   1     54   2927.290428    9    0    0    1           8.83869       1
    9   1     58    3040.65613    5    0    0    2          37.13162       4
    9   1     66   3273.157143    6    0    0    2          18.56567       2
    9   1     81   3673.659365    1    1    0    0           6.55121       1
    9   1     84   3730.795723    2    1    0    0           3.32595       1
    9   1     91   3826.368892    3    1    0    0          12.99130       2
    9   1    105   4130.846045    5    1    0    0          19.32447       3
    9   1    120    4395.65437    1    1    1    0          63.62246       5
    9   1    126   4452.724052    2    1    1    0          89.07144       7
    9   1    130   4548.172474    3    1    1    0          45.27538       7
    9   1    133   4583.878264    7    1    0    0           6.33717       1
    9   1    138   4681.458528    4    1    1    0          25.65788       4
    9   1    149    4852.25923    5    1    1    0          12.72466       2
    9   1    152   4885.219288    1    1    0    1          53.66525       6
    9   1    155   4944.442857    2    1    0    1          52.02638       6
    9   1    164   5043.462305    3    1    0    1          40.57510       9
    9   1    178   5181.625427    4    1    0    1          36.06671       8
    9   1    190   5358.509827    5    1    0    1          17.96041       4
    9   1    252   6079.396405    1    1    0    2           5.85205       2
    9   1    259   6141.065827    2    1    0    2           2.93864       2
    9   1    269   6243.982912    3    1    0    2           2.93863       2
    9   1    287   6387.374537    4    1    0    2           1.46868       1
    9   1    367   7113.165124    1    2    0    0          83.45376       6
    9   1    374   7167.960772    2    2    0    0         105.90063       7
    9   1    385   7259.654092    3    2    0    0          54.20650       7
    9   1    405   7387.702775    4    2    0    0          46.46254       6
    9   1    430   7551.798093    5    2    0    0          22.69342       3
    9   1    456   7751.551609    6    2    0    0          15.12888       2
    9   1    976   10384.84951    1    3    0    0           9.97784       3
    9   1    989   10437.36354    2    3    0    0           8.32409       5
    9   1   1014   10525.27243    3    3    0    0           9.98891       6
    9   1   1045   10648.04138    4    3    0    0           6.65558       4
    9   1   1089   10805.37201    5    3    0    0           6.65558       4
    9   1   1141   10996.90126    6    3    0    0           4.98892       3
    9   1   1301   11541.04458    1    3    0    1           7.20664       2
    9   1   1324   11595.46109    2    3    0    1          32.87900       2
    9   1   1394    11812.8219    4    3    0    1           4.90290       1
    9   1   1446   11975.15688    5    3    0    1           4.92661       1
    9   1   1510   12172.60695    6    3    0    1           4.87948       1
    9   1   1692   12676.12915    1    3    0    2           9.85328       2
    9   1   1720   12732.30026    2    3    0    2           9.90147       2
    9   1   1752   12826.29417    3    3    0    2           3.74777       2
    9   1   1871   13125.07757    5    3    0    2           6.33723       3
    9   1   2020   13489.19069    1    4    0    0          29.85106       6
    9   1   2042   13539.48047    2    4    0    0          29.55981       6
    9   1   2082   13623.74143    3    4    0    0          39.60588       8
    9   1   2130    13741.4298    4    4    0    0          24.63313       5
    9   1   2200   13892.33012    5    4    0    0          24.63303       5
    9   1   3694   16544.95731    3    5    0    0           4.95073       1
    9   1   3768    16659.4314    4    5    0    0           4.90290       1
    9   1   3867   16804.88688    5    5    0    0           4.92661       1
    9   2      1   44.78546443    0    0    0    0     1555550.84177      44
    9   2      2   64.45161449    1    0    0    0     1838378.26754      52
    9   2      3    124.568783    2    0    0    0     2020686.05178      70
    9   2      4   224.0988268    3    0    0    0     1847484.39020      64
    9   2      5   363.0884003    4    0    0    0     1524988.56259      61
    9   2      6   541.1935625    5    0    0    0     1038871.09341      36
    9   2      7   757.9888709    6    0    0    0      474878.90588      19
    9   2      8   768.7314754    0    0    1    0         111.80105       5
    9   2      9   788.3732818    1    0    1    0         163.29730       8
    9   2     10   848.4137828    2    0    1    0         183.70946       9
    9   2     11   947.8179118    3    0    1    0         151.18501       8
    9   2     12   1012.975448    7    0    0    0      223583.09801      10
    9   2     13     1086.6316    4    0    1    0         188.97590      10
    9   2     14   1264.511823    5    0    1    0         106.06028       6
    9   2     15   1283.277427    0    0    0    1         111.80105       5
    9   2     17   1303.678132    1    0    0    1         102.06081       5
    9   2     16   1305.591243    8    0    0    0      122459.47612       6
    9   2     18   1366.094193    2    0    0    1          28.86744       3
    9   2     19    1469.34803    3    0    0    1          28.34730       3
    9   2     20    1481.03451    6    0    1    0          70.70336       4
    9   2     24   1613.431419    4    0    0    1          75.59036       4
    9   2     25   1635.219628    9    0    0    0       75587.07537       4
    9   2     27   1735.702288    7    0    1    0          47.43263       3
    9   2     28   1797.888297    5    0    0    1          70.70686       4
    9   2     32   2022.174658    6    0    0    1          88.37701       5
    9   2     34   2027.955753    8    0    1    0          15.07525       1
    9   2     40   2285.646031    7    0    0    1          27.38546       3
    9   2     46   2505.752901    0    0    0    2          91.27052       5
    9   2     49   2526.983477    1    0    0    2         127.77873       7
    9   2     50    2587.60296    8    0    0    1          17.96022       2
    9   2     51   2591.983282    2    0    0    2         102.88313       6
    9   2     53   2699.408615    3    0    0    2          37.13262       4
    9   2     59   2849.166236    4    0    0    2          46.41577       5
    9   2     63   2927.290448    9    0    0    1           8.83863       1
    9   2     67   3040.656119    5    0    0    2          37.13238       4
    9   2     76   3273.157154    6    0    0    2          18.25410       2
    9   2     93   3654.194309    0    1    0    0           3.31133       1
    9   2     94   3673.057157    1    1    0    0          12.99137       2
    9   2     98   3730.799653    2    1    0    0          19.48707       3
    9   2    113   3959.826605    4    1    0    0          12.99117       2
    9   2    134   4339.022219    6    1    0    0           6.38869       1
    9   2    137   4376.209577    0    1    1    0          49.32614       4
    9   2    138   4395.051603    1    1    1    0          36.99465       3
    9   2    145    4452.72598    2    1    1    0          83.80925       7
    9   2    149   4548.172995    3    1    1    0          45.27541       7
    9   2    158   4681.458568    4    1    1    0          25.65788       4
    9   2    170   4852.259225    5    1    1    0          12.82890       2
    9   2    171   4864.874949    8    1    0    0           3.29689       1
    9   2    172   4865.009046    0    1    0    1          44.02245       5
    9   2    174   4884.555027    1    1    0    1          61.63144       7
    9   2    178   4944.445228    2    1    0    1          61.63144       7
    9   2    188   5043.462564    3    1    0    1          40.57512       9
    9   2    204   5181.625432    4    1    0    1          35.92106       8
    9   2    217   5358.509829    5    1    0    1          17.96050       4
    9   2    285   6058.276056    0    1    0    2           5.85205       2
    9   2    287   6078.661289    1    1    0    2           5.85205       2
    9   2    296    6141.06802    2    1    0    2           2.93864       2
    9   2    306   6243.982942    3    1    0    2           2.93737       2
    9   2    327   6387.374532    4    1    0    2           1.46868       1
    9   2    414     7094.4657    0    2    0    0          40.33482       4
    9   2    417   7112.540292    1    2    0    0          86.88311       6
    9   2    425   7167.963315    2    2    0    0         101.36348       7
    9   2    439   7259.654509    3    2    0    0          54.20650       7
    9   2    460   7387.702784    4    2    0    0          45.91533       6
    9   2    489   7551.798041    5    2    0    0          22.69342       3
    9   2    517   7751.551628    6    2    0    0          14.95873       2
    9   2   1097   10366.89818    0    3    0    0          13.27446       4
    9   2   1104   10384.20247    1    3    0    0           9.95585       3
    9   2   1119   10437.36468    2    3    0    0          23.23031       7
    9   2   1148    10525.2723    3    3    0    0           9.98891       6
    9   2   1184   10648.04139    4    3    0    0           6.65558       4
    9   2   1230   10805.37201    5    3    0    0           6.65558       4
    9   2   1290   10996.90123    6    3    0    0           4.98892       3
    9   2   1463   11522.45748    0    3    0    1           9.95036       2
    9   2   1470   11540.32849    1    3    0    1           5.58629       2
    9   2   1496   11595.46423    2    3    0    1          32.87943       2
    9   2   1523   11686.02909    3    3    0    1           1.99522       1
    9   2   1576    11812.8219    4    3    0    1           4.90290       1
    9   2   1633   11975.15688    5    3    0    1           4.92660       1
    9   2   1705   12172.60693    6    3    0    1           4.90285       1
    9   2   1904   12656.87103    0    3    0    2           9.95036       2
    9   2   1912   12675.36899    1    3    0    2           9.90147       2
    9   2   1942   12732.30245    2    3    0    2           9.90147       2
    9   2   1977    12826.2942    3    3    0    2           3.67442       2
    9   2   2112    13125.0765    5    3    0    2           6.83551       3
    9   2   2268   13471.96603    0    4    0    0          19.90073       4
    9   2   2278   13488.52129    1    4    0    0          24.87591       5
    9   2   2304    13539.4841    2    4    0    0          39.41314       8
    9   2   2348   13623.74084    3    4    0    0          29.55981       6
    9   2   2403   13741.42571    4    4    0    0          26.57007       7
    9   2   2480   13892.32934    5    4    0    0          19.70654       4
    9   2   2580    14076.3059    6    4    0    0           9.80576       2
    9   2   4358   16804.89557    5    5    0    0           4.90288       1
   10   1      1    0.00000000    1    0    0    0     2015031.42742      57